time,ASR_ext,ASR_strain,ASR_strain_xx,ASR_strain_yy,ASR_strain_zz,disp_x_101,disp_x_102,disp_x_103,disp_x_104,disp_x_105,disp_x_106,disp_x_p1_neg,disp_x_p1_pos,disp_x_p2_neg,disp_x_p2_pos,disp_x_p3_neg,disp_x_p3_pos,disp_x_p4_neg,disp_x_p4_pos,disp_x_p5_neg,disp_x_p5_pos,disp_x_p6_neg,disp_x_p6_pos,disp_y_101,disp_y_102,disp_y_103,disp_y_104,disp_y_105,disp_y_106,disp_y_p1_neg,disp_y_p1_pos,disp_y_p2_neg,disp_y_p2_pos,disp_y_p3_neg,disp_y_p3_pos,disp_y_p4_neg,disp_y_p4_pos,disp_y_p5_neg,disp_y_p5_pos,disp_y_p6_neg,disp_y_p6_pos,disp_y_p7_neg,disp_y_p7_pos,disp_y_p8_neg,disp_y_p8_pos,disp_z_101,disp_z_102,disp_z_103,disp_z_104,disp_z_105,disp_z_106,disp_z_p1_neg,disp_z_p1_pos,disp_z_p2_neg,disp_z_p2_pos,disp_z_p3_neg,disp_z_p3_pos,disp_z_p4_neg,disp_z_p4_pos,disp_z_p5_neg,disp_z_p5_pos,disp_z_p6_neg,disp_z_p6_pos,humidity,ndof,nelem,strain_xx,strain_yy,strain_zz,temp,thermal_strain_xx,thermal_strain_yy,thermal_strain_zz,vonmises,vstrain
2419200,0,0,0,0,0,0,0,0,0,0,0,0,0,0,0,0,0,0,0,0,0,0,0,0,0,0,0,0,0,0,0,0,0,0,0,0,0,0,0,0,0,0,0,0,0,0,0,0,0,0,0,0,0,0,0,0,0,0,0,0,0,0,0,0,0,0,0,0,0,0,0,0,0,0,0
2505600,0.0094345001706542,0.0001674617364694,5.5820578823133e-05,5.5820578823133e-05,5.5820578823133e-05,-4.9692009907811e-05,5.1420489352608e-05,6.0482752711009e-07,1.1334733999709e-06,9.8300197848265e-07,9.3615886941578e-07,-4.8995006745207e-05,5.0611121529512e-05,-4.8955625820929e-05,5.0632698675553e-05,-4.9248422848774e-05,5.0480351181487e-05,-4.8850692575792e-05,5.0737274954202e-05,-5.0680958611522e-05,5.1486072727682e-05,-4.9767925751519e-05,5.2213252228887e-05,1.0644484965899e-08,6.7664268890133e-08,1.9542082244942e-07,8.35556000657e-08,-5.0538222900792e-05,5.0701617454747e-05,-4.9871380228531e-05,5.0053107890447e-05,-4.9794072036042e-05,4.9972825624516e-05,-4.9652047480034e-05,4.9960753149876e-05,-4.9876683820068e-05,4.9854934402822e-05,-5.0631679566702e-05,5.1184428830633e-05,-5.0974563022872e-05,5.1096611831615e-05,-5.1308189107621e-05,5.1331567245023e-05,-5.135158978892e-05,5.1098592734146e-05,5.6397770272639e-07,1.7908017949886e-08,-4.9046247483393e-05,4.9568711007607e-05,2.6332794146948e-07,3.4827634053004e-07,-4.8454331295116e-05,4.9107211089646e-05,-4.8303120496914e-05,4.9067275308741e-05,-4.8618718196844e-05,4.8840943434834e-05,-4.8616133992037e-05,4.8856301809231e-05,-5.0138529811672e-05,4.999646657926e-05,-4.9414930463585e-05,5.063643282524e-05,0.80608370709363,1473840,32975,0.00021062877163989,0.00021089400866275,0.00020542665648858,29.887420886684,0.00015429936709347,0.00015429936709347,0.00015429936709347,332749.4000279,0.00062714632846192
2592000,0.020794795837656,0.00036874253866882,0.0001231170437511,0.000123141428689,0.00012248406622872,-7.0269185492378e-05,7.055268695401e-05,-2.8184658018706e-07,5.5526211581529e-07,1.9307519592795e-07,1.5570295488665e-07,-6.9976407983295e-05,7.000442825649e-05,-6.9739580991172e-05,7.0231921321879e-05,-7.0051222933315e-05,6.9964632147934e-05,-6.9720345062369e-05,7.0278414891902e-05,-7.0807770151714e-05,7.010666881602e-05,-6.9855816540029e-05,7.1021752403146e-05,-8.5038967280176e-08,-4.6220869970016e-08,7.6515774844174e-08,-1.2409206137002e-07,-7.0462943708253e-05,7.0372175208438e-05,-7.0038977114285e-05,6.9990817682507e-05,-7.0070709724823e-05,6.9925779433791e-05,-6.9973285209166e-05,6.99917635894e-05,-7.0091813552957e-05,6.9903182854314e-05,-7.0284841308798e-05,7.0485499505094e-05,-7.054423254234e-05,7.0309491169204e-05,-7.1149638164137e-05,7.0931911640797e-05,-7.1148450378415e-05,7.0831462417298e-05,6.3994724282965e-07,-2.0348404067083e-07,-6.7931003330216e-05,6.8354532830154e-05,1.2121492830274e-07,3.2173149344002e-07,-6.7625046676388e-05,6.8242414926906e-05,-6.7516149388592e-05,6.8302763938176e-05,-6.7902110349572e-05,6.7961258085239e-05,-6.7832239270709e-05,6.8012265153626e-05,-6.9333753067364e-05,6.893312725462e-05,-6.8405907174085e-05,6.9806136818723e-05,0.80782119533346,1473840,32975,0.0002933358140357,0.00029336340145233,0.00028388790052025,31.683586688038,0.0001686686935043,0.0001686686935043,0.0001686686935043,255816.15903235,0.00087096634954579
2678400,0.033274092564267,0.00059043882904316,0.00019748018736503,0.00019750374948761,0.00019545489219052,-8.9780304356457e-05,9.0071460866397e-05,-2.9979005299467e-07,5.8089090956722e-07,2.0606872191655e-08,3.10982507043e-07,-8.9562742995222e-05,8.9478866358132e-05,-8.9297784329482e-05,8.9733058046071e-05,-8.9511020895946e-05,8.9554311627615e-05,-8.9183777270925e-05,8.9869726250434e-05,-9.0116368626259e-05,8.953537931645e-05,-8.9170167865935e-05,9.0458786546165e-05,5.2875232519644e-08,-2.3618228116205e-07,-6.1552216536876e-08,-7.3249110364228e-08,-9.0012070997568e-05,8.9852317861032e-05,-8.9573629025e-05,8.9505398955559e-05,-8.9553192077992e-05,8.9500552477675e-05,-8.9628290289283e-05,8.9400371580925e-05,-8.9669982380575e-05,8.9379347994085e-05,-8.9876128269889e-05,8.9687999657384e-05,-8.9936692257965e-05,8.9677473720504e-05,-9.0609938481092e-05,9.0724586875429e-05,-9.0922008468413e-05,9.0352950785843e-05,7.8182479076669e-07,-1.0406932481731e-07,-8.6371327520098e-05,8.7035884515835e-05,3.3391118830805e-07,3.4586245563189e-07,-8.6123716314991e-05,8.7068407350032e-05,-8.6094392666677e-05,8.7065055745921e-05,-8.6417596575767e-05,8.6766838637506e-05,-8.6412182335955e-05,8.676008041849e-05,-8.8170367727494e-05,8.7927983157844e-05,-8.7229017977319e-05,8.8816269751328e-05,0.8092532863546,1473840,32975,0.00037462091078959,0.00037464719863567,0.00036119982537174,32.491621569792,0.00017513297255833,0.00017513297255833,0.00017513297255833,298927.11784177,0.0011110849530573
2764800,0.04638373524764,0.00082363409185371,0.00027588221876108,0.00027590491911893,0.0002718469539737,-0.0001093435090494,0.00010968006038373,-3.4566359792734e-07,6.7434737410741e-07,-8.884613077813e-08,4.6159870891178e-07,-0.0001091847839395,0.00010901390544126,-0.00010887080150313,0.00010931670094047,-0.00010904621155619,0.00010917772913416,-0.0001086748740877,0.00010953670530643,-0.00010955890873383,0.00010898790169817,-0.00010848355082408,0.00011003612854628,1.6031274379868e-07,-3.8880627764667e-07,-1.6520348733188e-07,-1.7115022976848e-08,-0.00010962099265106,0.000109415697525,-0.00010915935037007,0.00010908020273413,-0.00010908676836831,0.00010912691820986,-0.00010929875796482,0.0001088861817574,-0.00010928694176332,0.0001089205112523,-0.00010947162349782,0.0001089896281541,-0.0001093770510919,0.00010913951713319,-0.00011021669425263,0.00011059153476943,-0.0001107836608217,0.00010997997976022,8.163419559604e-07,-2.0907695042218e-07,-0.0001048766073858,0.00010546962352885,3.766635615867e-07,2.2989056858789e-07,-0.00010465961609166,0.00010563414913256,-0.00010468280201109,0.0001055759143333,-0.00010499962853583,0.0001052826953729,-0.00010504642464251,0.00010522341392698,-0.00010716423539337,0.00010666916830562,-0.00010609809649883,0.00010769319132485,0.81051085752075,1473840,32975,0.00045619490011487,0.00045622222047702,0.00043812542817485,32.830247504293,0.00017784198003434,0.00017784198003434,0.00017784198003434,349815.32450234,0.0013514552550357
2851200,0.059632467662325,0.0010595444402881,0.00035536644176638,0.00035538847373283,0.00034878952478894,-0.00012837130318272,0.00012868017990397,-4.2704995799144e-07,7.2923739363324e-07,-1.0472307344381e-07,4.4854071609279e-07,-0.00012823989397613,0.00012799407016636,-0.00012788151272181,0.00012834450428906,-0.00012809990024137,0.00012815995209647,-0.0001276842822446,0.00012856505297382,-0.00012848511879834,0.00012775851394273,-0.00012728028118005,0.00012894118171655,1.535992400771e-07,-3.9850802959333e-07,-1.2984022584115e-08,-1.8648104593176e-07,-0.00012864307148272,0.00012842102550247,-0.00012813326186653,0.00012814373495679,-0.00012816403113969,0.00012808352447231,-0.00012827443335961,0.00012794916100983,-0.00012836588591476,0.00012787636018408,-0.00012817447731923,0.00012798846819808,-0.00012839392656175,0.00012782277914699,-0.00012945114483162,0.00012970475215757,-0.00013002335659654,0.00012909611219518,8.0285600766581e-07,-3.5893098544913e-07,-0.00012272992697718,0.00012316173141835,1.3723292235097e-07,3.1038489716666e-07,-0.00012262642726626,0.00012337923900694,-0.00012254284945711,0.00012342740202877,-0.00012301166228178,0.0001229820748191,-0.0001229515703998,0.00012302945717595,-0.00012545499008087,0.00012477215054986,-0.00012426048754632,0.00012593145161602,0.81162294314115,1473840,32975,0.0005353803942909,0.00053540665652577,0.00051214332078698,32.734782857987,0.0001770782628639,0.0001770782628639,0.0001770782628639,398945.13852387,0.0015841842942629
2937600,0.072979988039864,0.0012974292203276,0.00043567636511719,0.00043569788267337,0.00042605497253708,-0.0001475867971047,0.00014779499099389,-5.759857098505e-07,7.7766656199349e-07,-3.8529374543015e-08,2.7989725040876e-07,-0.00014745293116904,0.00014711855755631,-0.00014702863397742,0.00014753574839455,-0.00014738961507684,0.00014720636622539,-0.00014690886204332,0.00014767739143289,-0.00014764286929599,0.00014654467961701,-0.00014624619325937,0.00014792090641827,1.0488550507286e-07,-2.1209636340017e-07,5.055179320466e-09,-6.8278683448203e-08,-0.00014773988509167,0.00014765408567313,-0.00014728867464718,0.00014732354227371,-0.00014728630935778,0.00014729714316731,-0.00014735336150576,0.00014720796196999,-0.00014741117872186,0.00014716882298935,-0.00014708828205853,0.0001470187473441,-0.00014721004068525,0.00014695107655686,-0.00014882687235259,0.00014902065479798,-0.00014916949836446,0.00014864454389984,8.3350414923288e-07,-5.2560690855423e-07,-0.00014058405572726,0.00014088033364826,1.1954475952875e-07,1.9238311904126e-07,-0.00014049927606855,0.00014121621426589,-0.00014044902259652,0.00014123064837568,-0.00014094996218359,0.00014075295591484,-0.00014092331877541,0.00014076690482044,-0.00014389559738167,0.00014285063207745,-0.00014250861842751,0.00014420267583209,0.81262245408289,1473840,32975,0.00061518919400217,0.00061521455523423,0.00058621262158295,32.612475836967,0.00017609980669573,0.00017609980669573,0.00017609980669573,449611.24580129,0.0018182679955294
3024000,0.086412780033335,0.0015367472593526,0.00051662449546946,0.00051664561642448,0.00050347714745864,-0.00016687031023086,0.00016714924324159,-5.9811013613155e-07,8.7037546991376e-07,-1.2392343156931e-07,4.3697237453124e-07,-0.00016681436598336,0.00016643078571969,-0.00016635126123936,0.00016688671842374,-0.00016666959451936,0.00016660023429939,-0.00016615094595813,0.00016710933379413,-0.00016670350184573,0.00016564392774279,-0.00016519407097787,0.00016713273005633,3.2664008302293e-08,-5.287707221652e-07,-2.7250894786776e-07,-1.8140377928728e-07,-0.00016725326597208,0.00016677834954232,-0.00016680622656022,0.0001664794813339,-0.00016674984968137,0.00016650833976761,-0.00016695195123324,0.00016628226926521,-0.00016695517759213,0.00016629832919517,-0.00016648395052492,0.00016578209142525,-0.0001664453271717,0.00016587558593803,-0.00016837211792905,0.0001684718897554,-0.00016895296113647,0.00016785435430148,8.6284164467493e-07,-6.1107256158057e-07,-0.0001584185187637,0.00015865840316422,1.7260867860914e-07,8.204679547407e-08,-0.00015835971695025,0.0001591130839468,-0.00015836494681934,0.00015907417888445,-0.00015884857663567,0.00015861143365323,-0.00015887718732037,0.00015857186820255,-0.00016231424233458,0.00016104590029453,-0.00016081468672189,0.00016251074576523,0.81259746024873,1473840,32975,0.00069563170433197,0.00069565681177939,0.00066035935148575,32.487665393135,0.00017510132314507,0.00017510132314507,0.00017510132314507,497956.49436834,0.0020537546878087
3110400,0.099919774390156,0.0017769213777181,0.00059801923553562,0.00059804004114225,0.00058086210104019,-0.00018627510286875,0.00018660898887848,-6.4775094549542e-07,9.7449431779863e-07,-1.8112097700561e-07,5.4949870168005e-07,-0.00018631412357827,0.00018587924673728,-0.00018579895492978,0.0001863864743038,-0.00018611432313153,0.0001861045539686,-0.0001855452626292,0.00018666477726143,-0.0001858580904128,0.00018475567066814,-0.00018419496892409,0.00018639692780972,2.4361691125244e-07,-4.8549261402889e-07,-1.608305826159e-07,-3.4763002553667e-08,-0.00018655731742581,0.00018633899764058,-0.00018612951530084,0.00018610322571234,-0.00018606358473084,0.00018614403462281,-0.00018633138047076,0.00018585201691321,-0.00018632329007894,0.00018587942927866,-0.0001855318603063,0.00018500071144944,-0.00018545872449213,0.00018512559118604,-0.00018774961659289,0.0001882840798112,-0.00018849703600666,0.00018749487411113,9.7103514321601e-07,-6.5659741933392e-07,-0.00017617559331155,0.00017647731616124,2.2083640097134e-07,9.5341385901598e-08,-0.00017617304838274,0.00017705050045021,-0.00017618953954239,0.00017699925849503,-0.0001767129843046,0.00017649790970561,-0.0001767528118909,0.00017644602838023,-0.00018066492849139,0.00017929427290642,-0.0001790110240075,0.00018091055852753,0.81127983177279,1473840,32975,0.00077653980575928,0.00077656524600494,0.00073442456905984,32.362604756842,0.00017410083805473,0.00017410083805473,0.00017410083805473,541999.03734333,0.0022901489404818
3196800,0.11349014212174,0.0020176943904686,0.00067978059810758,0.00067980122372522,0.00065811256863579,-0.00020580544161854,0.00020613587010479,-6.9171683933364e-07,1.0158517570842e-06,-2.1106537215345e-07,5.7547449725271e-07,-0.00020593605340413,0.00020545019924668,-0.00020539145014368,0.00020598565827668,-0.00020571784555116,0.0002056945619848,-0.00020511953942608,0.00020628245781705,-0.00020505686706096,0.00020388992780788,-0.00020330971317811,0.00020561084022641,2.9492552750132e-07,-4.8992394186396e-07,-1.4955141551243e-07,1.5878052688908e-09,-0.00020606214052926,0.00020589093317687,-0.0002056969146617,0.00020572819450992,-0.00020562286829355,0.00020577700657685,-0.00020591691318655,0.00020545784721765,-0.00020590129907038,0.00020549327027414,-0.00020469542475904,0.00020416766936187,-0.00020459808832321,0.00020431839533882,-0.0002073640801009,0.00020800696554755,-0.00020816673966114,0.00020716751209948,1.1230963754229e-06,-5.8991461696363e-07,-0.00019381286558951,0.00019433168733684,3.4086023703797e-07,1.9183054782488e-07,-0.00019389416575626,0.00019502426000404,-0.00019391762173492,0.0001949645078688,-0.000194462440261,0.00019444251847593,-0.0001945097987192,0.00019438283951111,-0.00019887039874322,0.00019762879857344,-0.00019713661396226,0.00019932891829467,0.80976522455019,1473840,32975,0.00085784242053796,0.00085786689786718,0.00080830880216468,32.237518840947,0.00017310015072758,0.00017310015072758,0.00017310015072758,582577.48801526,0.0025272072379007
3283200,0.12711305171642,0.0022579216631401,0.00076152973251677,0.0007615501467491,0.00073484178387422,-0.0002252759443227,0.00022572714114902,-6.8668189515165e-07,1.1280853728532e-06,-2.4017872952827e-07,7.4031483540286e-07,-0.00022556891686274,0.00022510231609334,-0.00022499468435762,0.00022566744142063,-0.00022529361519125,0.00022540725289007,-0.00022465275648405,0.00022603782332407,-0.00022413456584217,0.00022301327974936,-0.0002222519707751,0.00022485927179306,4.2780164936022e-07,-5.5037848118247e-07,-1.3847980193745e-07,7.7150299648642e-08,-0.00022555373747662,0.0002254617388903,-0.00022527837071653,0.00022542694509471,-0.00022517916105635,0.00022550227684715,-0.00022556103420085,0.00022509664820192,-0.00022552713967377,0.00022514951893489,-0.00022380270763111,0.00022324205597213,-0.00022365421363487,0.0002234595468205,-0.00022684619924779,0.00022778447193991,-0.00022783608182228,0.00022671251509134,1.1055918417984e-06,-7.1484695790143e-07,-0.00021148966269612,0.00021186382565561,3.0071201221815e-07,8.6094071229633e-08,-0.00021169812083385,0.00021273664704689,-0.0002117396328224,0.00021265759053713,-0.00021230184972131,0.00021212642701371,-0.00021237179170444,0.0002120414512798,-0.00021708798142345,0.00021556181936359,-0.00021522118163748,0.00021737519980727,0.80501662730947,1473840,32975,0.00093914789871932,0.00093917368250489,0.00088159922053001,32.112428495656,0.00017209942796525,0.00017209942796525,0.00017209942796525,614545.23437007,0.0027637341058266
3369600,0.14077759772722,0.002497812699571,0.00084335584292635,0.00084337732141111,0.00081107953523356,-0.00024483428280239,0.00024526613893342,-7.7894111207001e-07,1.2025970705368e-06,-3.5128998833227e-07,8.2058638843793e-07,-0.00024535020285778,0.00024474612766848,-0.00024471667921969,0.00024537282897717,-0.00024500297973272,0.00024511784947496,-0.00024431419076046,0.00024579956693739,-0.00024315217708528,0.00024193527281934,-0.00024112701020567,0.00024393335491919,3.1403582895865e-07,-8.5758477174493e-07,-4.1697963782625e-07,-7.9014757586735e-08,-0.00024531548208643,0.00024479722772335,-0.00024519222636612,0.00024494196115603,-0.00024505576521669,0.00024505642228915,-0.0002455402630733,0.00024454547832694,-0.00024546221723794,0.0002446414954589,-0.00024309406129002,0.00024191079869898,-0.00024281746276188,0.00024224327774645,-0.00024653111041057,0.00024727273507063,-0.00024771176110893,0.00024603670308965,1.1339784416923e-06,-8.5294154204402e-07,-0.0002290352036243,0.00022930186156014,3.0756307965666e-07,-2.8385744017314e-08,-0.00022935334228947,0.00023038403285659,-0.00022944109160415,0.00023026466213365,-0.00023001319221928,0.00022971417776066,-0.00023012409445975,0.00022959268408922,-0.00023523878077154,0.0002334090067658,-0.0002332264058962,0.0002353810374595,0.80170275575919,1473840,32975,0.0010205207702705,0.001020546336725,0.00095441532856953,31.987339189686,0.00017109871351748,0.00017109871351748,0.00017109871351748,644473.84765222,0.0029999746660468
3456000,0.15447273036171,0.0027371084306687,0.00092517306433053,0.00092519437570067,0.00088674099063749,-0.00026443759487417,0.00026475925482329,-9.501303989836e-07,1.2625520137884e-06,-3.7284789295545e-07,7.3215377065877e-07,-0.00026518202635317,0.00026441377946193,-0.00026447024575073,0.00026511757231541,-0.00026485749369361,0.00026476180160018,-0.00026409124772345,0.00026552072586505,-0.00026224279671307,0.00026066530871961,-0.00025999414054362,0.00026289040653748,3.9514689099183e-07,-7.0857084256192e-07,-2.9481161294266e-07,3.1704342291477e-08,-0.00026474835961536,0.00026446072039678,-0.00026483577213899,0.00026479600801877,-0.00026470375788481,0.00026490554850286,-0.00026516098141527,0.00026442366239601,-0.00026508744618974,0.00026451551488625,-0.00026187356430151,0.00026095830134946,-0.00026160623940233,0.00026127789967807,-0.00026601494994996,0.00026691384419999,-0.00026712871016049,0.00026574399387808,1.3446421587991e-06,-8.7324361063929e-07,-0.00024627081654777,0.00024672758482066,3.9671089843947e-07,7.2926409029351e-08,-0.00024675893653259,0.00024805202674279,-0.0002468417015369,0.00024793653951088,-0.00024749596007705,0.00024730555870978,-0.00024760240634498,0.00024718742034683,-0.00025306339998185,0.00025120084436844,-0.0002508228243052,0.00025339529908337,0.79821837260184,1473840,32975,0.0011018851121516,0.00110191055433,0.0010265556092805,31.862250093635,0.00017009800074908,0.00017009800074908,0.00017009800074908,674802.1951341,0.0032355758084932
3542400,0.16832600897462,0.0029779481455281,0.0010077058135053,0.00100772708788,0.00096251524414283,-0.00028434283600481,0.00028479433830811,-9.4111714526051e-07,1.3843988938334e-06,-4.1327714635812e-07,9.0273712532788e-07,-0.00028538517662638,0.00028464146342371,-0.00028463623502004,0.00028538274400513,-0.00028499661211108,0.00028505945807693,-0.00028419230380509,0.00028585644137831,-0.00028143462095211,0.00027994448551586,-0.00027907404382129,0.00028228395293788,8.8656268082824e-07,-4.2266460567886e-07,4.0671766645947e-08,4.8411973373051e-07,-0.00028432691219987,0.00028482176073765,-0.0002846461468625,0.00028541602595265,-0.0002844767000722,0.00028556610493405,-0.00028504091621852,0.00028497768739208,-0.00028492811668571,0.00028510768131414,-0.00028080823639784,0.00028049700506666,-0.00028042505656285,0.00028092972038111,-0.00028546421094913,0.00028738633066216,-0.00028678210525881,0.00028601010931987,1.3458434085128e-06,-9.8492817904894e-07,-0.00026390575451909,0.00026425234335956,3.9980620909276e-07,-4.057039435883e-08,-0.00026458078599345,0.00026583958882737,-0.00026469871130132,0.00026568196754183,-0.00026535403419927,0.0002650553000865,-0.00026549681335196,0.00026489589302167,-0.0002712505009353,0.00026912513872731,-0.00026889813122164,0.00027143199655875,0.79462189153965,1473840,32975,0.0011849988488745,0.001185022765549,0.0010997279350388,31.866077984508,0.00017012862387606,0.00017012862387606,0.00017012862387606,712516.66252446,0.0034757774254257
3628800,0.18246951452659,0.0032227344601757,0.0010917555142058,0.0010917766907101,0.0010392022552598,-0.00030494211157682,0.00030538177759672,-1.025794752805e-06,1.4562526500219e-06,-4.565497763954e-07,9.3454818028001e-07,-0.00030632624157413,0.00030549147899483,-0.00030552533516394,0.00030628567724784,-0.00030590925991219,0.00030593570201812,-0.000305053358645,0.00030678591789935,-0.00030125889325069,0.00029962851638361,-0.0002987445612219,0.0003021212386945,5.7080270130309e-07,-8.1817386705551e-07,-3.4360581868683e-07,1.5155223546633e-07,-0.00030527728922417,0.00030505864036138,-0.00030589362112647,0.00030596030763131,-0.00030570630970313,0.00030612802663233,-0.00030631533142949,0.00030549590135561,-0.00030618431835958,0.00030564250525412,-0.00030095689817551,0.00029985446867342,-0.00030052562239959,0.00030033619867343,-0.00030633313794552,0.0003076393378544,-0.00030772778428474,0.00030618264764229,1.4205243072685e-06,-1.0668777984293e-06,-0.00028193114638481,0.00028227024744203,4.2145243803467e-07,-7.0091292990803e-08,-0.00028280871999231,0.00028412910959569,-0.00028294663894432,0.00028395756514984,-0.00028363528433595,0.0002832941374293,-0.000283796777259,0.00028311911680776,-0.00028986754075513,0.00028756550440538,-0.00028736177152864,0.00029002508912063,0.79172621493252,1473840,32975,0.0012706989966677,0.0012707240372735,0.0011747337488775,32.003037779485,0.00017122430223588,0.00017122430223588,0.00017122430223588,761039.55326328,0.0037230715622088
3715200,0.19690131874034,0.0034719563694225,0.001177495998239,0.0011775172344686,0.0011169431367149,-0.00032594772632904,0.00032641570868148,-1.0351295630625e-06,1.4947507207823e-06,-3.8150100822076e-07,8.8685875124745e-07,-0.00032766563992266,0.00032688353341396,-0.00032684921671955,0.00032769400654361,-0.00032728792471577,0.00032728690940193,-0.00032641637295188,0.00032815234329569,-0.00032138387840945,0.00031969746910304,-0.00031882629023118,0.00032223602569588,5.094924598709e-07,-7.5657207169846e-07,-3.1318170668648e-07,1.1835910497736e-07,-0.00032629810710601,0.00032607826220848,-0.00032727044109047,0.00032731679952865,-0.00032710240949958,0.00032746299468555,-0.00032765107434709,0.0003268909331273,-0.00032754073280301,0.0003270175064794,-0.00032100594965474,0.00032000251388522,-0.00032063568629469,0.00032042165091837,-0.00032738891268222,0.00032855161774445,-0.00032866048482095,0.00032722031164306,1.3780139912346e-06,-1.1573677220652e-06,-0.00030026235620722,0.00030046961779767,3.2477770328184e-07,-1.0447544354018e-07,-0.00030139774549364,0.00030258290977709,-0.000301515366163,0.00030243183791904,-0.00030223996024707,0.00030173064487229,-0.00030238215056504,0.00030157685153627,-0.00030877014074815,0.00030630998212408,-0.00030622020671813,0.0003088162114829,0.79075896701206,1473840,32975,0.0013581660728472,0.001358192970501,0.0012507480306461,32.148107391464,0.00017238485913171,0.00017238485913171,0.00017238485913171,815199.59657176,0.0039749877599956
3801600,0.21161212836624,0.0037255086243263,0.001264904144038,0.0012649256503822,0.0011956788299061,-0.00034742095388296,0.00034781963031062,-1.2331577935817e-06,1.6230216227436e-06,-4.3389359880006e-07,8.7103514855546e-07,-0.00034957994770446,0.00034860675903345,-0.00034865456205536,0.00034952556072734,-0.00034918889919765,0.00034902285031108,-0.00034820822258849,0.00034999652516499,-0.00034201856735927,0.00033995690331975,-0.00033914033099417,0.00034281157698339,3.8819037837169e-07,-9.1659771102067e-07,-3.969568536459e-07,-8.108219606106e-08,-0.00034787737651184,0.0003473756577627,-0.00034920463500774,0.00034902119237825,-0.00034907400707813,0.00034912825061938,-0.00034959635056256,0.0003485809586157,-0.0003495250066918,0.00034866870764728,-0.00034154262518137,0.00034035653110932,-0.00034128723012126,0.00034066444527898,-0.00034893655377239,0.00034981495082174,-0.00035024468129194,0.00034844812260329,1.5962314540769e-06,-1.2654256055113e-06,-0.00031868875879787,0.00031900511934926,3.2151642787749e-07,7.9814564410432e-09,-0.00032007152648459,0.00032143557412348,-0.00032015132431857,0.00032132371400931,-0.00032102289840834,0.00032047467365747,-0.00032112687946194,0.00032036022302862,-0.00032794293929779,0.00032531433338338,-0.00032507521563098,0.00032813880331791,0.78997732899713,1473840,32975,0.001447367929881,0.0014473938138599,0.0013276541543101,32.293928888201,0.0001735514311056,0.0001735514311056,0.0001735514311056,870925.63944853,0.0042313441800413
3888000,0.22659080256228,0.0039832547160766,0.0013539423492763,0.0013539638834855,0.0012753484833148,-0.0003692355630957,0.00036968355057268,-1.2802381550345e-06,1.7195240829207e-06,-4.4327868561291e-07,9.3038232229227e-07,-0.00037184583164936,0.00037085161168268,-0.00037087221533717,0.00037181798806145,-0.00037143358637223,0.00037129077754111,-0.00037040446686595,0.00037231181857664,-0.0003628262429832,0.00036069639870577,-0.00035980690698966,0.00036369097276091,5.191694702883e-07,-8.5276568809627e-07,-2.6746847857025e-07,-1.3003310337501e-08,-0.00036961851542919,0.00036931294400583,-0.00037134112729075,0.000371396158353,-0.00037123099189143,0.00037148253851587,-0.00037175438216397,0.00037093329729684,-0.00037170414229196,0.0003710005607342,-0.00036219856929245,0.00036124650985718,-0.00036200259014625,0.0003614942116701,-0.00037062517470087,0.00037174507507758,-0.00037199973543036,0.00037031206188993,1.7113538301852e-06,-1.293942931965e-06,-0.00033732488921173,0.00033772735823346,3.3409824137507e-07,8.1945196744018e-08,-0.00033900409630045,0.00034048136828784,-0.0003390620726177,0.00034038865347522,-0.00034000321524434,0.00033947210234336,-0.00034008595680338,0.00033937752496684,-0.00034729117214078,0.00034462870995162,-0.00034428289286366,0.00034759348200067,0.78934692939729,1473840,32975,0.0015382287430162,0.001538254405887,0.0014053794080909,32.439824979576,0.0001747185998366,0.0001747185998366,0.0001747185998366,926559.24085316,0.0044919225040962
3974400,0.24182473017811,0.0042450238309291,0.0014445502922552,0.0014445718844122,0.0013559016542616,-0.00039149425301107,0.00039187736330325,-1.3259805672922e-06,1.701205556927e-06,-3.0703560317303e-07,7.272565136172e-07,-0.0003945063792293,0.00039355053754382,-0.00039352435527658,0.00039452655805915,-0.00039420524028621,0.00039387651447037,-0.00039316730335698,0.00039490716557009,-0.00038401391210028,0.00038168049681019,-0.00038096865046544,0.00038470296333094,3.8736870847691e-07,-6.4517001740749e-07,-2.5185207676226e-07,4.472087687195e-08,-0.00039180789208694,0.00039157608635322,-0.00039404681053896,0.0003940485799491,-0.00039392188366084,0.00039414915927614,-0.00039434900727603,0.00039369887196107,-0.00039428434414431,0.00039378029904533,-0.00038321237599574,0.00038240519455912,-0.00038297572506089,0.0003826945981334,-0.00039294091846567,0.00039381659965266,-0.00039398424474971,0.0003927196483822,1.6672679349267e-06,-1.3655776903609e-06,-0.00035624716499759,0.00035653481020837,2.9791789469374e-07,3.441256233146e-09,-0.00035824999121605,0.00035963626612362,-0.00035832220034862,0.00035952969315502,-0.00035925808521911,0.00035861758452394,-0.00035935524992228,0.00035850918558579,-0.00036693364167604,0.00036411471695734,-0.00036389990434756,0.00036710790551003,0.78884273466822,1473840,32975,0.0016306910454474,0.0016307167398239,0.0014838714031116,32.585728545628,0.00017588582836503,0.00017588582836503,0.00017588582836503,981233.95279413,0.004756557327648
4060800,0.25730000711441,0.0045106201698244,0.0015366581372496,0.0015366797790388,0.001437282253536,-0.00041407466783415,0.00041449086036993,-1.4754906494486e-06,1.8838568996196e-06,-3.2793701103906e-07,7.8179356447986e-07,-0.00041764528651055,0.00041658658252656,-0.00041655224179438,0.00041767307513189,-0.0004173192182988,0.00041693766708386,-0.00041617053892388,0.0004180789317095,-0.0004055330977838,0.00040293324605664,-0.00040216247242607,0.0004062800531259,4.0727628450902e-07,-7.0078157844533e-07,-3.3385574579993e-07,9.1480830517448e-08,-0.0004144224923584,0.00041415543332613,-0.00041716038822652,0.00041710955629483,-0.00041699350048199,0.00041725323822614,-0.00041748738602948,0.0004167346139314,-0.00041738072361959,0.00041685906829949,-0.00040469063770504,0.00040369679870459,-0.00040432865910337,0.0004041134634393,-0.00041546413108127,0.00041642050459126,-0.00041658090016962,0.00041524980775149,1.8263577094304e-06,-1.5387316541177e-06,-0.00037528903396432,0.00037556219286162,3.5431442796441e-07,-6.8314057093316e-08,-0.00037757462770719,0.00037909991918881,-0.00037768960307796,0.00037895080388882,-0.00037869352164312,0.00037797053906846,-0.0003788334353116,0.00037781959166237,-0.00038690882481886,0.00038370829582342,-0.00038355063592268,0.0003870265847353,0.78844693629368,1473840,32975,0.0017246866705628,0.0017247124318385,0.0015630637778143,32.731632815562,0.00017705306252449,0.00017705306252449,0.00017705306252449,1034640.7551803,0.0050250478917266
4147200,0.27300144522768,0.0047798234496137,0.0016301865501524,0.0016302082390743,0.0015194286603869,-0.00043704365333054,0.00043741956122805,-1.6684364729424e-06,2.0366354510005e-06,-2.7047418059625e-07,6.8325028714616e-07,-0.00044117261301398,0.00044001030796763,-0.0004399644589324,0.0004412120514232,-0.00044089773620799,0.00044030926610025,-0.00043963390448571,0.00044156579807802,-0.00042741712172195,0.0004243865049575,-0.00042370798030588,0.00042807207846334,3.5392839878082e-07,-5.9805761434194e-07,-3.1829824782597e-07,1.2431322077284e-07,-0.00043734709426143,0.00043712854108782,-0.00044064014561599,0.00044058012148197,-0.00044046740429479,0.00044072956131631,-0.0004409158691966,0.00044025720325236,-0.00044080346414976,0.00044038748224278,-0.00042631798966206,0.00042540750913725,-0.00042593919112969,0.00042584137953752,-0.00043843032138116,0.00043928832345047,-0.00043939451437868,0.00043827151443871,1.9852976440269e-06,-1.725690818407e-06,-0.00039449164325636,0.00039473690471132,3.4895090330795e-07,-9.094741869742e-08,-0.00039709519793744,0.00039871376844267,-0.00039721593662034,0.00039855900569745,-0.00039832929663995,0.00039746900478979,-0.00039847509114996,0.00039731239970534,-0.00040708636574057,0.00040351332257643,-0.00040338962564647,0.00040717057727685,0.78814701858627,1473840,32975,0.0018201369084655,0.0018201627106559,0.0016428909743134,32.877537107185,0.00017822029685748,0.00017822029685748,0.00017822029685748,1086621.4005533,0.0052971730301196
4233600,0.28891261223384,0.0050523907954306,0.001725049006382,0.0017250707336248,0.0016022710554239,-0.00046033496524774,0.0004606888722584,-1.8265600851114e-06,2.1726383742245e-06,-2.4596606866152e-07,6.3660786947129e-07,-0.00046506174323234,0.00046380309824322,-0.00046375554513475,0.00046510270877321,-0.00046481021713438,0.00046407817217991,-0.00046344828439231,0.00046543277610838,-0.00044951943131931,0.00044615461465301,-0.00044552192657976,0.00045012827310389,3.2962466897674e-07,-5.5124206221834e-07,-3.2044061642382e-07,1.4855762929338e-07,-0.00046061634070067,0.00046041991528665,-0.00046448594824541,0.00046441566895583,-0.00046430457490509,0.00046457396835093,-0.00046473822154712,0.00046411645445301,-0.00046461729066155,0.00046425551576163,-0.00044824273954739,0.00044735214104767,-0.00044783819985958,0.00044781208503289,-0.00046170476475903,0.00046252406521279,-0.00046259922418261,0.00046157708037299,2.1321897496802e-06,-1.8730478860924e-06,-0.00041381625150971,0.00041406089953189,3.6164285643096e-07,-1.044522045076e-07,-0.00041675936407144,0.00041848409611625,-0.00041688890708289,0.00041832074780434,-0.0004180915628188,0.00041714132214994,-0.0004182462119672,0.00041697607403903,-0.00042741700641888,0.00042354653309712,-0.00042343187580275,0.00042749171833127,0.78793429193428,1473840,32975,0.001916956419341,0.0019169822096447,0.0017232763676657,33.023441354578,0.00017938753083662,0.00017938753083662,0.00017938753083662,1137128.99061,0.0055726869462438
4320000,0.30510351379559,0.0053295382290643,0.0018216684307723,0.001821690189362,0.0016861796089299,-0.00048419835169983,0.00048455597015086,-1.9210651267193e-06,2.2708756117958e-06,-2.4805830410623e-07,6.4249515581102e-07,-0.0004895511260611,0.00048822925347468,-0.00048818079282239,0.00048959320545073,-0.00048929700464166,0.00048850709513769,-0.0004878708368066,0.00048992585856263,-0.00047206120744617,0.0004685142519467,-0.0004678749858026,0.00047267642891277,3.2862893649568e-07,-5.6025673305925e-07,-2.4005411950452e-07,5.8047954412537e-08,-0.0004844866028193,0.00048428015233847,-0.00048891943379579,0.00048889849724648,-0.00048879417446711,0.00048899959777567,-0.0004891742576989,0.00048859647660454,-0.0004891094664379,0.00048867841219589,-0.00047061649400317,0.00046988044605562,-0.00047037851605488,0.00047017233147174,-0.00048558390623395,0.00048634394933324,-0.00048648603331255,0.0004853892463299,2.2559953073425e-06,-1.942124530725e-06,-0.00043347686389209,0.0004337763137213,3.0439712594712e-07,8.5666577808675e-09,-0.00043682173181849,0.00043860859026159,-0.00043689465807949,0.0004385020409343,-0.0004382182412427,0.0004372015184854,-0.00043831629197979,0.00043709306852079,-0.00044806641773469,0.00044411875783521,-0.00044389271120423,0.00044825282284965,0.78775072457452,1473840,32975,0.0020161987569122,0.0020162245719828,0.0018051684630435,33.247061468582,0.00018117649174865,0.00018117649174865,0.00018117649174865,1186759.5789075,0.0058546659767577
4406400,0.32163972937512,0.0056123569080526,0.0019204303216744,0.0019204521067033,0.0017714744796748,-0.00050873550934014,0.00050909194364062,-2.0510688238073e-06,2.3996342032402e-06,-2.4290248456622e-07,6.3624349333641e-07,-0.00051476062842986,0.00051335512758128,-0.00051330411778445,0.00051480530861024,-0.00051451031423752,0.00051362914648475,-0.00051299789577701,0.00051513418189738,-0.00049523292666831,0.00049142745123249,-0.00049079323559701,0.00049584298766451,3.2647564809123e-07,-5.5098758482822e-07,-2.2989567298328e-07,5.5122942762988e-08,-0.00050901960454756,0.00050882029876923,-0.00051408331999094,0.00051407007806297,-0.00051396235581231,0.00051416681806528,-0.0005143343246905,0.00051377180010941,-0.00051427388019074,0.0005138493526803,-0.00049364701916281,0.00049293486866408,-0.00049342175267748,0.00049321396913032,-0.0005101154079772,0.00051086677196254,-0.00051100616690727,0.00050992323123425,2.3871388300226e-06,-2.0698983141157e-06,-0.00045359025159808,0.0004538930727164,2.9963795330376e-07,1.681629959087e-08,-0.00045731547834857,0.00045918765253993,-0.00045738409984766,0.0004590854978125,-0.00045879830495297,0.00045769430911866,-0.00045889208942824,0.00045759023520383,-0.00046929565558584,0.00046510228271343,-0.00046486839723117,0.00046948970927292,0.78747034768606,1473840,32975,0.0021182223950596,0.0021182482382774,0.0018888304155036,33.544666665912,0.00018355733332729,0.00018355733332729,0.00018355733332729,1236119.5154494,0.0061441016095215
4492800,0.33850682909676,0.0059006136704124,0.002021260667921,0.0020212824759397,0.0018580705265518,-0.00053378870083624,0.00053414868513526,-2.1330392989666e-06,2.4851571387555e-06,-2.4337507992464e-07,6.4032093062462e-07,-0.00054051592514899,0.00053905663389752,-0.00053900359230903,0.00054056257036291,-0.00054026407946412,0.00053933212986913,-0.00053869586529404,0.00054089299480798,-0.00051879143102241,0.00051482695538275,-0.00051418762409393,0.00051940656666253,3.2705627316538e-07,-5.5497627258389e-07,-2.6534275227314e-07,8.7009804249875e-08,-0.00053407631801463,0.00053387353891781,-0.00053982376091527,0.00053978628227853,-0.00053968069411973,0.00053990553540443,-0.00054007620409748,0.00053948640069243,-0.00053999370411095,0.0005395864911146,-0.00051716127256219,0.00051637793542964,-0.00051687037854447,0.00051672347076355,-0.00053515356179012,0.00053592844731861,-0.00053604880202015,0.00053498040887421,2.459419095503e-06,-2.1652668641491e-06,-0.00047399150351273,0.0004742711848844,3.2142007301661e-07,-2.8490570920262e-08,-0.00047811539413568,0.00048004275433521,-0.00047820641468596,0.00047991836862315,-0.00047965410864993,0.00047849355527506,-0.00047977031559456,0.00047836722245514,-0.00049084913674245,0.000486446132788,-0.00048625774932331,0.00049099779362795,0.78723101806315,1473840,32975,0.0022223907071869,0.0022224165876488,0.0019736278705024,33.846805882514,0.00018597444706011,0.00018597444706011,0.00018597444706011,1285030.8277445,0.0064390803465048
4579200,0.35568340446145,0.0061939561843218,0.0021240418546209,0.0021240636851583,0.0019458506445426,-0.00055932948032502,0.00055968652351045,-2.2957876793821e-06,2.6448805099913e-06,-2.3873522297919e-07,6.3281003026589e-07,-0.0005668212132395,0.00056525554350536,-0.00056520143940648,0.00056686891979194,-0.00056657336312151,0.00056552694690918,-0.00056489766782111,0.00056719532430632,-0.00054283648613357,0.00053854903143301,-0.00053791684359765,0.00054344446659136,3.231503860482e-07,-5.4674008238114e-07,-2.7369735116144e-07,9.9628854147055e-08,-0.00055961350164369,0.00055941498940457,-0.00056607919097642,0.00056603498901075,-0.00056592920970841,0.00056616127145333,-0.00056632757479262,0.00056573909746512,-0.00056623821642201,0.00056584619874881,-0.0005410508821728,0.00054025528475645,-0.00054073952909531,0.00054062156371091,-0.00056069536811694,0.00056146954242266,-0.0005615785496063,0.00056053331071575,2.6160352844524e-06,-2.3313242278595e-06,-0.00049462243869135,0.0004948926748976,3.2709541019555e-07,-4.3718437012288e-08,-0.00049914112104619,0.00050117358393111,-0.00049923915096575,0.00050104232363382,-0.00050078741267153,0.00049951687900142,-0.0005009106557574,0.0004993836435949,-0.00051277198475896,0.00050803667635306,-0.00050786452359316,0.00051290408842025,0.7870324455916,1473840,32975,0.0023285614344178,0.0023285873395505,0.0020594022732264,34.149367297248,0.00018839493837798,0.00018839493837798,0.00018839493837798,1333232.9762423,0.0067391609355574
4665600,0.37314530103075,0.0064919880783352,0.0022286412668641,0.0022286631159327,0.0020346836955383,-0.0005853181188103,0.0005856813635668,-2.4459681769568e-06,2.8012214016384e-06,-2.4318736398609e-07,6.4360073529721e-07,-0.00059361489688717,0.00059194819535991,-0.00059189299531075,0.00059366370851902,-0.00059336203846753,0.00059222466949571,-0.00059158419252841,0.00059399521896468,-0.0005672383418202,0.00056266193334878,-0.00056201846938558,0.00056785752377232,3.282043608367e-07,-5.5693788683161e-07,-2.7519948759693e-07,9.6055734211078e-08,-0.0005856077802352,0.00058540419971912,-0.00059282207256961,0.00059277857738292,-0.00059267277039163,0.00059290417911173,-0.0005930754108807,0.00059247753881123,-0.0005929867638616,0.00059258395874737,-0.00056531221638372,0.00056450846383643,-0.00056500289563705,0.00056487280089401,-0.00058669300273666,0.00058747629026268,-0.00058759105697488,0.0005865249891872,2.7691055791112e-06,-2.4850043088024e-06,-0.00051545061045728,0.00051572022622331,3.2576084061146e-07,-4.2996472057484e-08,-0.00052038376270482,0.00052251715861868,-0.00052048116599769,0.00052238666739419,-0.00052213232620139,0.00052075825360411,-0.00052225495302945,0.00052062575653027,-0.00053495332366728,0.00052991780315574,-0.00052974549925307,0.00053508548795659,0.78687423080984,1473840,32975,0.0024366012796919,0.0024366271970996,0.0021460084038718,34.451970779948,0.00019081576623958,0.00019081576623958,0.00019081576623958,1380656.450232,0.007043933173796
4752000,0.39086602940488,0.0067942745708757,0.0023349134466079,0.0023349353093197,0.0021244258149481,-0.000611231239955,0.00061254236285351,-2.131136202392e-06,3.4413441395696e-06,2.1163577079596e-07,1.1937171512265e-06,-0.00062029266927647,0.00061941321321747,-0.00061845298646479,0.00062119244289662,-0.00062006917625799,0.00061971992082113,-0.00061811314343802,0.00062161054783683,-0.00059198916653411,0.00058798907706286,-0.00058633273936948,0.00059354462196,1.1313269691286e-06,1.6564105335099e-07,5.4923045712176e-07,9.1362415586616e-07,-0.0006112245436816,0.00061259550886394,-0.000619123215973,0.00062068175066893,-0.00061896741437666,0.00062080425161568,-0.00061936732668216,0.00062031966973388,-0.00061930800146265,0.00062042188438878,-0.00058951699821605,0.0005903137640017,-0.00058920805840998,0.00059068584948956,-0.00061225324114643,0.00061463960714152,-0.00061322235869438,0.00061351977916573,2.7150602649806e-06,-2.8708812467737e-06,-0.00053672229077549,0.00053655078578385,1.0574930060051e-07,-2.5644965542803e-07,-0.00054229794893305,0.00054408228704708,-0.00054233024509165,0.00054392981067351,-0.00054414220818232,0.00054221028623915,-0.00054425384685555,0.00054203767086933,-0.00055730135952527,0.00055145105068392,-0.0005517202908018,0.00055701158386692,0.78675597132752,1473840,32975,0.0025462721140759,0.0025463685754592,0.0022335356118622,34.754578425633,0.00019323662740506,0.00019323662740506,0.00019323662740506,1419405.1031813,0.0073530825755553
4838400,0.40881699604639,0.0071003570336187,0.0024426702478049,0.0024427035479899,0.0022149832378239,-0.00063845815418039,0.00063892812980632,-2.6766292150603e-06,3.1398763855184e-06,-1.5803318136185e-07,6.7141119701361e-07,-0.00064844065833927,0.00064670936101038,-0.00064652892858732,0.00064860569381585,-0.00064821697751967,0.00064696601908299,-0.00064623852670556,0.00064892830848256,-0.00061703399651071,0.00061197211082763,-0.0006112356246855,0.00061773330278068,4.1254679737269e-07,-4.1160216109107e-07,-1.651821997301e-07,2.3638699208928e-07,-0.00063868475016891,0.00063871979571949,-0.00064751752811039,0.00064767963526985,-0.00064735624845583,0.00064781650433012,-0.00064774506701013,0.00064739618385088,-0.0006476506781858,0.00064751175741773,-0.00061473930841366,0.00061417428928352,-0.0006144016700241,0.00061457031150468,-0.0006398360124349,0.00064080343597383,-0.00064067925982643,0.00063989966983205,3.0097757475503e-06,-2.8152014727137e-06,-0.00055761739411349,0.00055779770599254,2.9670911176883e-07,-1.0249707054241e-07,-0.00056345045213967,0.00056569341249179,-0.00056354724096199,0.00056554854178873,-0.0005653872451014,0.00056374356905625,-0.00056551847305433,0.00056359343792222,-0.0005799893914763,0.00057428579418219,-0.00057421280697511,0.00058002439470136,0.78667731472892,1473840,32975,0.0026576734085181,0.0026577112847033,0.0023211392846857,35.057186566837,0.00019565749253469,0.00019565749253469,0.00019565749253469,1472942.1645759,0.0076657613056693
4924800,0.42696713635182,0.0074097037127862,0.002551796541433,0.0025518294733241,0.002306077698029,-0.00066559106817677,0.00066605524442607,-2.8687425721524e-06,3.3262964329904e-06,-1.6141334758346e-07,6.6865061138208e-07,-0.00067649547572167,0.00067463199687185,-0.00067445755880238,0.00067665470304577,-0.00067627134017286,0.00067488899873356,-0.00067416686989727,0.00067697731005644,-0.0006423906371696,0.00063695310331868,-0.00063622227458288,0.00064308474534074,4.0790644091256e-07,-4.1679898837665e-07,-1.3770800115577e-07,1.9861962017472e-07,-0.00066581970031405,0.00066584471337803,-0.00067550038364426,0.00067567420215047,-0.0006753605470737,0.00067578933445871,-0.00067572821249213,0.00067539078707096,-0.00067565517440189,0.00067548449938213,-0.00063988156855677,0.00063937034728651,-0.00063960763101475,0.00063970179290239,-0.00066702591796701,0.00066796235531384,-0.00066786998985307,0.00066705859915085,3.210574762224e-06,-2.9931969006658e-06,-0.00057880596596574,0.00057900917668455,2.7584882713115e-07,-5.8363347352242e-08,-0.00058508838398812,0.0005874588904057,-0.00058516388587244,0.00058733578176173,-0.00058715152808773,0.00058538274822055,-0.00058726118164118,0.0005852545122019,-0.00060277875763722,0.0005967491077257,-0.00059663184049622,0.00060285818097268,0.78663798201579,1473840,32975,0.0027704068792637,0.0027704444075533,0.0024092721345257,35.359794650268,0.00019807835720214,0.00019807835720214,0.00019807835720214,1517558.0088361,0.0079818148500658
5011200,0.44528376464032,0.007721624608399,0.0026620238571418,0.0026620564721579,0.0023975442790993,-0.00069300393204431,0.00069346751032582,-2.9656684108078e-06,3.4226963153654e-06,-1.7073599117151e-07,6.7716205854333e-07,-0.00070483760183146,0.00070290315428125,-0.00070273519722562,0.00070499044900281,-0.00070460735753369,0.00070316621442115,-0.00070243861780411,0.00070531883033033,-0.00066785668218215,0.00066223576456603,-0.00066149964713904,0.00066855647313261,4.0982155607671e-07,-4.3266550634161e-07,-1.4475992611977e-07,1.9143335995032e-07,-0.00069323920312829,0.00069325019508976,-0.00070381100733764,0.00070397671639235,-0.00070367125129436,0.00070409187091825,-0.00070404475549365,0.00070368755441954,-0.00070397171028779,0.00070378119625244,-0.00066526589583004,0.00066473496854173,-0.00066499223581394,0.00066506604489428,-0.00069448826508364,0.00069542821387745,-0.0006953499856792,0.00069450742716479,3.3077608862104e-06,-3.0895688829676e-06,-0.00060003190062927,0.00060023597019261,2.7620594875154e-07,-5.7877889944662e-08,-0.00060680032600098,0.00060923629260849,-0.00060687609896972,0.00060911333811325,-0.00060892808410394,0.00060709561131255,-0.00060903774454841,0.0006069676508229,-0.00062559003948442,0.00061937208981638,-0.0006192540995198,0.00062567027703209,0.78623079181797,1473840,32975,0.0028843013368358,0.0028843385542879,0.0024975076502454,35.662403070108,0.00020049922456086,0.00020049922456086,0.00020049922456086,1561629.2411379,0.0083004123787694
5097600,0.46361677411703,0.0080322530251802,0.0027720122261973,0.0027720445684646,0.0024881962305182,-0.00072017012716592,0.00072064058793012,-3.0938024010502e-06,3.5576558714886e-06,-1.8544126289442e-07,6.987639189071e-07,-0.0007330199629881,0.00073099258473255,-0.00073082991605293,0.00073316775605807,-0.00073277754927956,0.000731267907994,-0.00073052124243736,0.00073350811107758,-0.0006929779787889,0.00068711861062683,-0.00068636378463092,0.00069369687118002,4.0863847618744e-07,-4.7024462411645e-07,-1.1240237130326e-07,1.2003653774871e-07,-0.00072042814585274,0.00072040039993437,-0.00073194317407486,0.0007321167016909,-0.00073183754579083,0.00073219721783747,-0.00073218894025708,0.00073181552866884,-0.00073214995322214,0.0007318744323661,-0.00069024295812255,0.00068976281444557,-0.00069007046486538,0.00068999145515735,-0.00072166536300021,0.0007225677722044,-0.00072256270389661,0.00072161133929396,3.4593339057887e-06,-3.2013496663508e-06,-0.00062080017778265,0.00062104412698734,2.4476743847024e-07,1.404671354969e-08,-0.00062810902581029,0.00063063813750387,-0.00062815074015925,0.00063054979032358,-0.00063032468262836,0.00062840972845456,-0.00063040003327451,0.000628316416739,-0.00064794406130349,0.0006415427419625,-0.00064135041958559,0.00064809829130917,0.78257459447222,1473840,32975,0.0029971734339522,0.0029972103801406,0.0025839153687419,35.864783355929,0.00020211826684743,0.00020211826684743,0.00020211826684743,1608959.0940618,0.0086152049107088
5184000,0.48183307380252,0.0083406533733308,0.002881391275725,0.002881423381023,0.0025778387165828,-0.00074697049847677,0.00074747810104723,-3.1111714586637e-06,3.6121805930285e-06,-2.249304857245e-07,7.7584918698567e-07,-0.00076087425799711,0.00075882143717986,-0.00075866026143969,0.00076102066281669,-0.00076059386298221,0.00075913581208798,-0.00075831356630503,0.00076139976132084,-0.0007175544075435,0.00071170106373227,-0.0007108699949006,0.00071834900444693,4.6938375617442e-07,-5.2557727583823e-07,-3.2522804651525e-08,4.6795372565482e-08,-0.00074724390348144,0.00074722241177042,-0.00075973760716838,0.00076000656443208,-0.00075968241138676,0.00076003586758764,-0.00076002133567945,0.00075966675204395,-0.00076003287951619,0.00075967449422092,-0.00071476320677759,0.00071440119034587,-0.00071474018477415,0.00071447900949587,-0.00074842112959827,0.00074939238537208,-0.00074943241339577,0.00074832181460439,3.5340788294122e-06,-3.1987146661812e-06,-0.00064110375963391,0.00064142498955776,2.0752182055109e-07,1.2946746953138e-07,-0.00064897349175921,0.00065155276498146,-0.00064896425602473,0.00065151505566756,-0.00065121326568802,0.00064930025436768,-0.00065123761423715,0.00064925777908872,-0.00066977139394478,0.00066342819080571,-0.00066310739359615,0.00067005380224255,0.78233435435296,1473840,32975,0.0031085759538629,0.0031086126554756,0.0026684630244476,35.979158842399,0.00020303327073919,0.00020303327073919,0.00020303327073919,1656755.258852,0.0089252536869362
5270400,0.49989800953183,0.0086491637874841,0.0029909135526362,0.0029909454471832,0.0026673047876647,-0.00077390610694769,0.00077438058638698,-3.0671750372286e-06,3.5344371510108e-06,-2.1732272007246e-07,7.3485445471435e-07,-0.00078871065938578,0.00078668161792925,-0.00078653729596309,0.00078884029067408,-0.00078844545387247,0.00078697971555714,-0.00078620604074801,0.00078920309962026,-0.00074233057849342,0.00073654531259686,-0.0007357650474637,0.0007430756259244,4.198875025628e-07,-5.269179622801e-07,-1.1856055127756e-07,8.0896386108235e-08,-0.00077418858691601,0.00077411571341278,-0.00078763894830273,0.00078780087229857,-0.0007875442779301,0.00078787040371683,-0.00078790700045895,0.00078747715899726,-0.00078787876518087,0.00078752496114974,-0.00073965001034761,0.00073913482371615,-0.00073950991979996,0.00073933121145428,-0.00077552257222395,0.00077643573542772,-0.00077648605284127,0.00077541116032728,3.4424074991201e-06,-3.1687525640402e-06,-0.00066136326413682,0.00066162287619923,2.3616063478689e-07,3.8243863425253e-08,-0.00066973663037106,0.00067225409587336,-0.00066976787406934,0.00067217704377403,-0.00067193591966954,0.00067004236577302,-0.0006720005171192,0.00066996030034589,-0.0006917086850179,0.00068538181320412,-0.00068516172718445,0.00069188815156725,0.78946351874111,1473840,32975,0.0032203816350044,0.0032204181109589,0.002752533012156,36.088083141009,0.00020390466512807,0.00020390466512807,0.00020390466512807,1689180.8869304,0.0092357293092139
5356800,0.51778474525859,0.0089534268815345,0.0030991308261545,0.0030991625344158,0.0027551335209642,-0.00080061959997356,0.00080110645351922,-3.2655944388416e-06,3.7432704092767e-06,-2.1508368951442e-07,7.4409570544948e-07,-0.00081638987114325,0.00081423715429526,-0.00081408155390822,0.00081653293922156,-0.00081612099582989,0.0008145363257958,-0.0008137478932909,0.00081689554098568,-0.00076711153060374,0.00076093751498725,-0.00076014781548403,0.00076787225694135,4.6401599273695e-07,-4.8911730785615e-07,-1.0437653698484e-07,1.5055390899298e-07,-0.00080086747821709,0.00080087689700799,-0.00081522241884534,0.0008154491728543,-0.00081511238424509,0.00081553937517439,-0.00081549520573479,0.00081512653593504,-0.00081544736157107,0.00081519266020441,-0.00076422567183443,0.00076374233473603,-0.00076403065087621,0.00076399021217343,-0.00080235781657395,0.00080337850264991,-0.00080332594038624,0.00080233810571247,3.5792872839235e-06,-3.4396268110575e-06,-0.00068117358972954,0.00068130064897497,1.9703869758625e-07,-5.6817817217038e-08,-0.0006900913980899,0.00069263170890196,-0.00069014280074062,0.00069253735792779,-0.00069242673576587,0.00069028566230286,-0.00069250991825188,0.00069018530815028,-0.00071342841812218,0.00070654690239758,-0.00070647664669808,0.00071345187211766,0.78637952924223,1473840,32975,0.0033313465281825,0.0033313844732762,0.002834583664614,36.196500588771,0.00020477200471016,0.00020477200471016,0.00020477200471016,1717540.7994222,0.0095425662570004
5443200,0.53546621251697,0.0092522070267212,0.0032056169673344,0.0032056487497208,0.002840941309666,-0.00082680772900443,0.00082723548691504,-3.3098506609501e-06,3.7296831788669e-06,-1.5290240851017e-07,6.2178560069539e-07,-0.00084360738164301,0.00084144603861354,-0.0008412880163134,0.00084375105549266,-0.00084339952784751,0.0008416838755946,-0.00084101518660707,0.0008440530475247,-0.00079100718589549,0.00078468455633294,-0.00078401283094923,0.00079164583333496,3.7426052926505e-07,-3.9463786081929e-07,-2.3882102759919e-09,5.0770948489764e-08,-0.00082702428671392,0.00082703704626591,-0.00084243124969038,0.00084266761686736,-0.00084238598839579,0.00084268871694595,-0.00084264211005896,0.0008424051609606,-0.00084266168597137,0.00084240373955831,-0.00078791741124224,0.00078769347886586,-0.0007879190550034,0.00078774328742254,-0.00082864617879127,0.00082942237381905,-0.00082943498789991,0.00082856920712107,3.6908004454919e-06,-3.3588831607986e-06,-0.00070031958839581,0.0007006376481041,1.9283762510772e-07,1.4049585101522e-07,-0.00070982981140355,0.00071250316582328,-0.00070981358379151,0.00071247517895428,-0.00071217512082906,0.00071014541825302,-0.00071219140389079,0.00071011224916018,-0.00073417575395843,0.00072752473440191,-0.00072719652820727,0.00073445942921134,0.78129223342979,1473840,32975,0.0034399691568237,0.003440006671576,0.0029145400559556,36.304866959935,0.00020563893567948,0.00020563893567948,0.00020563893567948,1760436.2115762,0.0098426490406809
5529600,0.55291583954201,0.0095446308717419,0.003310026788908,0.0033100585968231,0.0029245454860107,-0.00085258681817107,0.00085273206437919,-3.5902889667059e-06,3.7234631899774e-06,-3.250635432385e-07,5.1160409801054e-07,-0.00087059368328613,0.00086804025008254,-0.00086818496289794,0.00087043857677628,-0.00087036303727515,0.00086829814882676,-0.00086789133545894,0.00087076045222255,-0.0008144333641217,0.00080757371339772,-0.00080716801942905,0.00081480767621237,3.8880539594414e-07,-4.4279551900009e-07,8.8595882259582e-08,-7.4916562793828e-08,-0.00085267833443126,0.00085265729105824,-0.0008691908374923,0.0008694852264239,-0.00086922032669712,0.00086943628743524,-0.00086942439381686,0.00086920612103578,-0.00086951477914434,0.00086913312282242,-0.00081099194178642,0.00081092386815509,-0.00081120512096065,0.00081076400298119,-0.00085420006330395,0.00085493452508008,-0.0008550493916671,0.00085401296012771,3.8917840535565e-06,-3.4325755440956e-06,-0.00071892481158223,0.00071936917812493,1.4800602351225e-07,3.1163684335853e-07,-0.00072903629628385,0.00073185477685697,-0.00072894983136927,0.00073189960608945,-0.00073147424197141,0.00072940882545564,-0.00073141979942,0.00072944722146492,-0.0007544195164731,0.00074769476294177,-0.00074716002533421,0.00075489708780117,0.77529938537243,1473840,32975,0.0035464176802138,0.0035464523339649,0.0029921099452708,36.413227709951,0.00020650582167961,0.00020650582167961,0.00020650582167961,1808408.2719566,0.010136015821834
5616000,0.57010886959558,0.0098306820894647,0.0034123246528766,0.0034123560540505,0.0030060013825376,-0.00087760013810891,0.00087793708889044,-3.5857765925944e-06,3.9121896600556e-06,-1.4464793995174e-07,5.2054509108208e-07,-0.00089685164144865,0.00089448507650572,-0.00089438130577172,0.00089694504769064,-0.00089667890924373,0.00089468725564666,-0.00089414475708589,0.00089721061442045,-0.00083694073242793,0.00083003912641402,-0.00082949900002179,0.00083745512747948,3.3667606472604e-07,-3.2264078693425e-07,2.6841827236094e-07,-1.8772860133756e-07,-0.00087775345062007,0.00087780002167783,-0.0008954867267721,0.00089588948808058,-0.00089561250790126,0.00089574493225412,-0.00089566730659418,0.00089566936410476,-0.00089585207781577,0.00089549767648161,-0.00083328080822543,0.00083362249830605,-0.00083377412664705,0.00083317114414541,-0.00087919379213075,0.00087973032500476,-0.00087987405000601,0.00087898163181444,4.0048598146759e-06,-3.5040191567473e-06,-0.00073699729902773,0.00073748419662681,2.4717434784305e-08,4.7950025117814e-07,-0.00074777674777524,0.00075060231032654,-0.00074759465751985,0.00075074421975583,-0.00075027705672661,0.00074809619639214,-0.00075012484676979,0.00074823101665698,-0.00077402681296047,0.00076725957485777,-0.00076659118191594,0.00077464281366457,0.77036212474972,1473840,32975,0.003650659921498,0.0036506935318388,0.0030672876910454,36.521587392935,0.00020737269914347,0.00020737269914347,0.00020737269914347,1859787.3707331,0.010422594297373
5702400,0.58702216750145,0.0101102642484,0.003512456382602,0.0035124873498033,0.0030853205159943,-0.00090220318589438,0.00090253513005835,-3.8628457020236e-06,4.1859708569814e-06,-1.5921507948061e-07,5.3100406531273e-07,-0.0009228550046528,0.00092029043232947,-0.00092020015287821,0.00092293252606464,-0.0009226733693354,0.00092050026379271,-0.00091995412139304,0.00092320526891624,-0.00085908593875578,0.00085165184569907,-0.00085110655453771,0.00085960309586298,3.4449432176315e-07,-3.3992498880812e-07,2.4866379877081e-07,-1.7767847167174e-07,-0.00090235956969573,0.00090239623957187,-0.00092139887822946,0.00092179055682469,-0.0009215125231611,0.00092165216028378,-0.00092158404506539,0.0009215578603322,-0.0009217602433469,0.00092139647051878,-0.00085517993941455,0.00085547740652466,-0.00085564919346634,0.00085505384082505,-0.00090349830323856,0.00090405743652526,-0.00090420381592623,0.00090328727601649,4.2940890228255e-06,-3.7661701329145e-06,-0.00075449654430055,0.00075501059487919,5.3209715879469e-08,4.7850744068274e-07,-0.00076589087539111,0.00076893649082772,-0.00076571733131988,0.00076906879364687,-0.00076857295554982,0.00076624408988938,-0.00076843095383071,0.00076636956639006,-0.00079325849976377,0.00078597141346919,-0.0007852884467677,0.00079389432194075,0.76613511750722,1473840,32975,0.0037527796819827,0.003752815861472,0.0031400477930847,36.629946748199,0.00020823957398559,0.00020823957398559,0.00020823957398559,1911271.1887817,0.010702524158879
5788800,0.60363427791064,0.010383058053043,0.0036103025111847,0.0036103334559691,0.0031624220858888,-0.00092630469293531,0.0009265559094893,-4.0377888885208e-06,4.2783496762013e-06,-3.0949301469161e-07,6.0299621379665e-07,-0.00094840033744189,0.00094559301235377,-0.0009456556149525,0.00094832466120123,-0.00094814719884118,0.00094587647192482,-0.00094533912074403,0.00094867141167939,-0.00088047379241837,0.00087276773729749,-0.00087223001092741,0.00088097931037388,4.5602461458762e-07,-4.5138714166244e-07,4.3596688867284e-07,-3.6137380234957e-07,-0.0009264191892255,0.00092645820414447,-0.00094672510848953,0.00094731483895051,-0.00094696151265781,0.00094705295454787,-0.0009469817416358,0.00094700859114992,-0.00094728018011708,0.00094672292408891,-0.00087628508298161,0.00087687482535352,-0.00087711611584203,0.00087608852388232,-0.00092715560660108,0.00092781076932111,-0.00092807765910684,0.00092681918656876,4.504008444317e-06,-3.8240566459596e-06,-0.00077132830576479,0.00077199406741051,-5.4906111117641e-08,7.3976751826505e-07,-0.00078351223826814,0.0007866758674555,-0.0007832156542173,0.00078693068737153,-0.00078628448574827,0.00078389467316121,-0.00078601942108052,0.0007841427468447,-0.00081157468798036,0.00080430199540869,-0.00080333874730903,0.00081248414168093,0.76186094119301,1473840,32975,0.00385264984517,0.003852684555199,0.003210289895469,36.738306037577,0.00020910644830061,0.00020910644830061,0.00020910644830061,1963120.3821736,0.010975433678042
5875200,0.61986612702898,0.010649440004805,0.0037059561568466,0.00370598692844,0.0032374969195185,-0.00094950222155733,0.00095018771711495,-3.8162877750463e-06,4.4935392796465e-06,-5.4092942833639e-08,7.7798182702051e-07,-0.00097296364009339,0.0009706182906018,-0.00097022095220403,0.00097334911200968,-0.00097273295217986,0.0009708744477183,-0.00096992962200438,0.00097366871092374,-0.00090087582051743,0.00089358587149318,-0.00089263670251952,0.00090179345025342,4.1937784751603e-07,-4.0434588535387e-07,5.3077601524322e-07,-4.4781271350537e-07,-0.00094982893617387,0.00094987717550775,-0.00097149475042035,0.00097212661199311,-0.00097179189863733,0.00097180682471953,-0.00097173067656437,0.00097185107901241,-0.00097208820567084,0.00097150575859058,-0.00089679162403475,0.00089759430045066,-0.00089780236721878,0.00089663252119827,-0.00095028172797084,0.00095080596275892,-0.00095112603930038,0.00094989525153391,4.5170498573825e-06,-3.8053678913307e-06,-0.00078755932146548,0.00078825492150078,-1.300190147102e-07,8.4462000854724e-07,-0.00080055754160133,0.00080368857043599,-0.00080020189429501,0.00080400565826819,-0.00080332651226082,0.00080090919566359,-0.00080300234442052,0.00080121839232282,-0.00082920267757124,0.00082202479352887,-0.00082097261234844,0.00083020686627044,0.76210078890517,1473840,32975,0.0039498267972037,0.0039498602216507,0.0032777798824655,36.784584587126,0.000209476676697,0.000209476676697,0.000209476676697,2010292.1239345,0.011240187164369
5961600,0.63565832091167,0.010906765789391,0.0037985018964629,0.0037985323665847,0.0033097315263438,-0.00097229133031629,0.00097281493937773,-3.9775121944462e-06,4.4924420922892e-06,-1.3331295817221e-07,6.9649219430814e-07,-0.00099712300427769,0.00099456314448042,-0.00099432868687167,0.00099734765008353,-0.00099689525586925,0.00099482002949671,-0.0009940378588288,0.00099766697293397,-0.00092092926218732,0.00091331901821023,-0.00091254038044896,0.00092168839763338,4.2509310246745e-07,-3.9725555402992e-07,4.6900597652362e-07,-3.7271218048396e-07,-0.00097253112968253,0.00097259205417189,-0.00099556663574269,0.00099616505363303,-0.00099581761650616,0.00099589010047073,-0.00099579968909299,0.00099588757293502,-0.00099611054750089,0.00099558749322136,-0.00091674516103846,0.00091742909685371,-0.00091761908444455,0.00091659646936977,-0.00097261285911933,0.00097319354158577,-0.00097345235023754,0.00097228507641213,4.4828406098769e-06,-3.9997712473483e-06,-0.00080309835206972,0.00080356969836021,-1.7320246191424e-07,6.6467643135942e-07,-0.00081692817414252,0.00081993520215219,-0.00081661720726231,0.0008202047828536,-0.00081975008448301,0.00081710237626632,-0.00081947062940426,0.00081736462838082,-0.00084624989047092,0.00083864084808134,-0.00083786416952725,0.0008469774761976,0.75737031281052,1473840,32975,0.0040440619930489,0.0040440969486068,0.0033418653437012,36.780618398493,0.00020944494718794,0.00020944494718794,0.00020944494718794,2049014.2625322,0.011495618582339
6048000,0.6510010543076,0.011155861406119,0.0038882120276524,0.0038882424326043,0.0033794069458625,-0.0009942345347406,0.00099456907868149,-4.0935980504367e-06,4.4192601056177e-06,-1.8087332612962e-07,5.5556680501301e-07,-0.001020518766611,0.0010177862505808,-0.0010177123413639,0.0010205872516318,-0.0010203230292519,0.0010180127432704,-0.0010174514104008,0.0010208752114526,-0.0009399950621705,0.0009321253648993,-0.00093156798601295,0.00094053562157708,3.5776615696873e-07,-3.7257281228002e-07,3.9200103459253e-07,-3.3972084566918e-07,-0.00099440141989869,0.00099441925152727,-0.0010189347686325,0.001019421464983,-0.0010191446600244,0.0010191814565642,-0.0010191342629687,0.001019173539846,-0.0010194070316535,0.0010189101631712,-0.00093574374202162,0.00093630672946618,-0.00093650919038263,0.00093558024261344,-0.00099404527190056,0.00099452892683604,-0.00099479585939451,0.00099371550944768,4.2923598454897e-06,-4.2336480158766e-06,-0.00081805103347824,0.00081810145364396,-3.2491246994125e-07,3.9909970655818e-07,-0.0008326839154843,0.0008353246039045,-0.00083241180005142,0.00083555544089706,-0.00083552190630453,0.00083247611489037,-0.00083528068734968,0.00083270063806856,-0.00086259111045148,0.00085448205754953,-0.00085416698623449,0.00086285938917896,0.75516893499493,1473840,32975,0.0041347218405389,0.0041347570884749,0.0034031035500957,36.773524746003,0.00020938819796802,0.00020938819796802,0.00020938819796802,2095763.7545072,0.011740998066096
6134400,0.66588881223761,0.011397360054533,0.0039752689185147,0.0039752992977204,0.003446791838298,-0.0010155534850263,0.0010158658985697,-4.2352869062655e-06,4.5380859707979e-06,-1.2405742119732e-07,4.7487521760686e-07,-0.0010432646799653,0.001040468586226,-0.0010403683795142,0.0010433544077968,-0.0010431104350912,0.0010406485440708,-0.0010401521057367,0.001043596642741,-0.00095863469726927,0.00095043804059651,-0.00094994598542516,0.00095910114854531,2.4173233418557e-07,-3.5169957626627e-07,3.8675163186209e-07,-4.3362272436666e-07,-0.0010157578610975,0.0010156785134646,-0.0010416998183459,0.0010420762083363,-0.0010419443969564,0.0010418071732992,-0.0010418569827538,0.0010418761744949,-0.0010421619543563,0.0010415818157851,-0.00095420190754428,0.00095479744590837,-0.00095505387382826,0.00095398726444979,-0.0010150812286357,0.0010153045878313,-0.0010156952893105,0.0010146232017238,4.7299064114949e-06,-4.0569319014976e-06,-0.00083190307817135,0.00083256289138146,-6.7871131461934e-08,7.480286989741e-07,-0.00084737692354024,0.00085068029266121,-0.00084707498157753,0.00085094435957799,-0.00085030129997795,0.00084774611197374,-0.00085003014413455,0.00084800294281023,-0.00087793062064769,0.00087020842273283,-0.00086924562545863,0.00087884046047963,0.75514731536209,1473840,32975,0.0042231294020654,0.0042231644995627,0.0034619080268465,36.766136908747,0.00020932909526998,0.00020932909526998,0.00020932909526998,2131784.5704023,0.011979415393513
6220800,0.68031859724765,0.011631335174171,0.0040596891691756,0.0040597195053996,0.0035119264995961,-0.0010363095954831,0.0010366751709551,-4.3133725825931e-06,4.6695292065794e-06,-1.7900409408186e-07,5.8428491319175e-07,-0.0010654149686512,0.0010625484679192,-0.001062449332961,0.0010655040163106,-0.0010652097817663,0.0010627834856911,-0.0010621802996212,0.0010658008566553,-0.00097671506468334,0.0009684225338001,-0.00096781920160101,0.0009772872942347,3.7926957420222e-07,-3.775599575268e-07,5.6285746505068e-07,-4.9459229989381e-07,-0.0010364840304357,0.0010365181272289,-0.0010636947901077,0.0010643164725495,-0.0010640158683015,0.0010639674868914,-0.0010639038489087,0.0010640606678066,-0.0010642867295263,0.0010636873587208,-0.00097208592556097,0.00097297449702159,-0.00097317068950677,0.00097193006226942,-0.0010354325021978,0.0010358509013604,-0.001036208516237,0.0010350097140599,4.8863856068579e-06,-4.1104795473888e-06,-0.00084542552380411,0.00084618797121639,-1.3376054476506e-07,9.1848234311401e-07,-0.00086179303465171,0.00086519014440216,-0.00086141123761861,0.00086553102894086,-0.00086478779262776,0.00086218528051524,-0.00086443695445044,0.0008625197921214,-0.0008929260262524,0.00088518252426749,-0.00088403775133479,0.00089401992267309,0.75528326579712,1473840,32975,0.0043093499681273,0.0043093858860546,0.0035182896077427,36.758719484199,0.00020926975587359,0.00020926975587359,0.00020926975587359,2157875.9105916,0.012211010119263
6307200,0.69428902265134,0.011857862051359,0.0041414928807557,0.0041415232607115,0.003574845909892,-0.0010564531850902,0.0010568818244258,-4.3533710732457e-06,4.7729851212991e-06,-1.6249783073149e-07,6.3101406878453e-07,-0.0010868893856045,0.0010840282465656,-0.0010838764254556,0.0010870314936645,-0.0010866752445813,0.0010842732843668,-0.0010835975813391,0.001087338468132,-0.00099422510089626,0.00098586655109224,-0.00098518986567557,0.00099487160617245,4.430289075735e-07,-3.4328616248579e-07,6.3695952793971e-07,-4.686834914278e-07,-0.0010566094307215,0.0010567424587475,-0.0010851097801585,0.0010858563366176,-0.0010854465100084,0.0010854908166159,-0.0010853282947459,0.0010855898363377,-0.001085727709539,0.001085200614025,-0.00098949500186349,0.00099052033153155,-0.00099062626339749,0.00098942811995136,-0.0010552551844578,0.0010557848866781,-0.0010560613333794,0.0010549151774865,4.981660123976e-06,-4.1592180154721e-06,-0.00085840403024349,0.00085921335397602,-1.336555397733e-07,9.6647683435968e-07,-0.00087563594425609,0.00087911159063254,-0.00087523741450903,0.00087946796243488,-0.00087867852689333,0.00087605847390132,-0.00087831154214973,0.00087640881632444,-0.00090739538833347,0.00089957402463613,-0.00089836753614846,0.00090855212564144,0.75554625370282,1473840,32975,0.0043930424786716,0.0043930773276813,0.0035722946996901,36.751299036929,0.00020921039229543,0.00020921039229543,0.00020921039229543,2179040.4631575,0.012435130921255
6393600,0.7078001229957,0.012076643880813,0.004220569928453,0.0042206002509784,0.0036354737013811,-0.0010760011124787,0.0010764052618667,-4.5214067153653e-06,4.9169223590422e-06,-2.0124598230009e-07,6.4533019674301e-07,-0.0011077775679469,0.0011047694347249,-0.0011046601782481,0.0011078765603912,-0.0011075445716471,0.0011050321804439,-0.0011043632533243,0.0011082015468508,-0.0010112572248249,0.0010025890424472,-0.0010019187609017,0.0010118995556438,3.8638926985202e-07,-4.5392223833622e-07,1.7190746647725e-07,-1.7321141335517e-07,-0.0010762291172484,0.0010761941739929,-0.001106124243858,0.001106468955891,-0.0011062107445412,0.0011063577637302,-0.0011063599260308,0.0011061842362855,-0.0011065095333426,0.0011060495715835,-0.0010068375301659,0.0010069296623257,-0.0010072266372222,0.0010065862146856,-0.0010744446379878,0.0010751119105062,-0.0010753038033205,0.0010741925676215,4.9891544889069e-06,-4.4642147002078e-06,-0.00087096254310299,0.00087147449325331,9.4728053778981e-08,4.3675769577231e-07,-0.00088889277120758,0.00089242911062448,-0.00088874757829952,0.0008925338791976,-0.00089204009767181,0.00088927206778152,-0.0008919258905053,0.00088937075630406,-0.00092165866412997,0.00091298193253747,-0.0009123276302277,0.00092226635000762,0.75471974251638,1473840,32975,0.0044740753732598,0.0044741102813384,0.0036238393537322,36.743878282315,0.00020915102625852,0.00020915102625852,0.00020915102625852,2196922.9053911,0.012651424481559
6480000,0.7208533459134,0.012289128645779,0.0042973927912902,0.0042974230739206,0.0036943127805681,-0.0010950784919336,0.0010952954653156,-4.7130114406761e-06,4.9176717210946e-06,-2.2229225878568e-07,4.8714513317314e-07,-0.0011280785137872,0.0011248687072608,-0.0011249023579953,0.0011280312342815,-0.0011278958193703,0.0011250796700032,-0.0011246446708317,0.0011283207065208,-0.0010280275024361,0.0010189109138949,-0.0010184718103188,0.0010284260126717,4.6252677094358e-07,-2.3883631176904e-07,3.9081825011326e-07,-8.7775890049693e-08,-0.0010950651925293,0.0010953270152101,-0.0011261762914416,0.0011268060968012,-0.00112630260605,0.001126657786098,-0.0011263608215125,0.0011265782098374,-0.0011265586022754,0.0011263921821352,-0.001023138031104,0.0010237208033288,-0.0010236671252469,0.0010232474464963,-0.0010931471031685,0.001093934661912,-0.0010938881209349,0.001093120468914,5.1605588937788e-06,-4.4877271752282e-06,-0.00088278779174489,0.00088344305278089,9.8324515641628e-08,5.7497062934827e-07,-0.00090159886635088,0.00090529075754865,-0.0009014060473403,0.00090544506107629,-0.00090481082859899,0.0009020791654335,-0.00090464747874054,0.00090222009755769,-0.00093493622515767,0.00092624943118563,-0.00092539216729406,0.0009357347042342,0.75876646091501,1473840,32975,0.0045528124610229,0.0045528501194884,0.0036732523485753,36.736457507427,0.00020909166005941,0.00020909166005941,0.00020909166005941,2210966.8866876,0.012860956793928
6566400,0.73345197813593,0.012495092563222,0.0043718788042281,0.0043719088201805,0.0037513049388133,-0.0011136228220428,0.0011140210269978,-4.7110792295485e-06,5.0988878149723e-06,-6.3834080394867e-08,5.0059564661137e-07,-0.0011477064402735,0.0011446642986464,-0.0011444656967172,0.0011478947763784,-0.0011475637749192,0.0011448299921029,-0.0011442600583968,0.0011481240886033,-0.0010441977545281,0.0010350564430987,-0.0010344906792749,0.001044736774409,2.9863710401221e-07,-2.5885087871657e-07,3.2846348093524e-07,-2.2318009306594e-07,-0.0011137940195069,0.0011138649568836,-0.0011459922905464,0.0011464159150455,-0.0011461482016606,0.0011462380376852,-0.0011461388373572,0.0011462308612522,-0.0011463549769874,0.0011460252044546,-0.0010393439867003,0.001039844428234,-0.0010399363885434,0.0010392927991237,-0.0011119523285903,0.0011123840148753,-0.0011125360518756,0.0011117277046417,5.2183666855163e-06,-4.6077961651186e-06,-0.00089434280558558,0.00089493852854994,3.4371020202249e-08,5.8176009703534e-07,-0.00091392427352469,0.00091759846653406,-0.00091371168982056,0.00091777326567781,-0.00091719329708479,0.0009143186248016,-0.0009170118866686,0.00091448532508572,-0.00094824386652791,0.00093934970702814,-0.00093853711693762,0.00094899985388452,0.7619962045252,1473840,32975,0.0046300964579033,0.004630127635193,0.0037211223650931,36.729622428773,0.00020903697943018,0.00020903697943018,0.00020903697943018,2207146.2101946,0.013066015582662
6652800,0.74590978806758,0.012699764231216,0.0044459066687247,0.0044459364085538,0.0038079211539375,-0.0011328498312808,0.0011335778059766,-4.5085943019237e-06,5.228798286569e-06,1.0802470118725e-07,6.5800850978701e-07,-0.0011679466304887,0.0011652618008857,-0.0011647304758107,0.0011684694983023,-0.0011678116000868,0.00116542402192,-0.0011645319777492,0.0011686942714806,-0.0010610457783548,0.0010523047072523,-0.0010514115238708,0.0010619107332437,2.9864336938271e-07,-2.4473300042356e-07,3.1584244459556e-07,-1.9564795547233e-07,-0.0011331792461586,0.0011332645956732,-0.0011664150737742,0.0011668364609055,-0.0011665562122717,0.0011666702373976,-0.0011665561353695,0.0011666522328119,-0.0011667593574834,0.00116646094584,-0.0010563976869741,0.001056875541617,-0.0010569504908171,0.0010563662642656,-0.0011313888364939,0.0011318335670788,-0.0011319579619229,0.0011311974328614,5.1696928214295e-06,-4.5836183828073e-06,-0.00090645576013366,0.00090702828305671,4.2069155880636e-08,5.4995392425279e-07,-0.000926844300313,0.00093048511660942,-0.00092664407741049,0.00093064557282,-0.00093008931323596,0.00092722753555376,-0.00092992045046991,0.00092738127946867,-0.00096201461944344,0.00095315839859799,-0.00095238588563513,0.00096273848180713,0.76550576115049,1473840,32975,0.0047105132532474,0.0047105466664971,0.0037713828052261,37.168869169029,0.00021255095335223,0.00021255095335223,0.00021255095335223,2204622.4606392,0.013279895298788
6739200,0.75821976650715,0.012903162377125,0.0045194845586999,0.0045195141964827,0.0038641636219428,-0.0011524854917215,0.0011526646661355,-4.9842972937579e-06,5.1529326972903e-06,-1.4304034824594e-07,3.6077605131876e-07,-0.0011886377621296,0.0011852887041663,-0.0011852879015851,0.0011886283437002,-0.0011885189767834,0.0011854355902352,-0.0011851053135771,0.0011888384205114,-0.0010785844026375,0.0010688873436638,-0.0010685600793614,0.0010788846968791,3.9890258346382e-07,-9.7799160133451e-08,4.7200435116442e-07,-1.0342810056361e-07,-0.0011524170132392,0.0011527502173699,-0.0011866490295846,0.0011873219016649,-0.001186811498715,0.0011871347241002,-0.0011867714543752,0.0011871540747713,-0.0011869968156483,0.0011869420709599,-0.0010732968660647,0.001074100448385,-0.0010739113150335,0.0010735285435225,-0.0011507840153742,0.0011514085221996,-0.001151308483485,0.0011508219664744,5.3855156096807e-06,-4.7688223346508e-06,-0.00091838011567176,0.00091898332647468,2.5905479409504e-08,5.97676626453e-07,-0.00093951313102458,0.00094329678049131,-0.00093929069127541,0.00094347769722698,-0.00094289398579668,0.00093990736679432,-0.00094270242090878,0.00094008151016515,-0.00097589078789458,0.00096669464166904,-0.00096586809306042,0.00097666253432099,0.76954158095861,1473840,32975,0.0047907963161084,0.0047908315095317,0.003820971308427,37.634759511238,0.0002162780760899,0.0002162780760899,0.0002162780760899,2199743.8229043,0.013492867332653
6825600,0.77035723974191,0.013106656363927,0.0045930542008225,0.0045930838768651,0.0039205182862394,-0.001171874773821,0.0011720490483239,-4.9548391635229e-06,5.1173813895638e-06,5.5966724875457e-08,1.5406306744969e-07,-0.0012088553261778,0.0012056588677443,-0.0012055272490025,0.0012089779309116,-0.001208865836053,0.0012056679832562,-0.001205476644264,0.0012090501158484,-0.0010958629862114,0.0010860842384303,-0.0010858987833546,0.0010960211427805,2.21139790705e-07,1.3084555843389e-07,5.3502511747721e-07,-1.2002830485003e-07,-0.0011717783500085,0.0011721585852677,-0.0012069680889153,0.0012075792173838,-0.0012071594063497,0.0012073664522676,-0.0012069601321561,0.0012075504059682,-0.0012072130431553,0.0012073113723953,-0.0010904014138725,0.0010914687556402,-0.0010910965190336,0.0010908194529808,-0.0011706461956795,0.0011708962859873,-0.0011707736337083,0.001170701147535,5.3663771466608e-06,-4.7238867513387e-06,-0.00093021723290488,0.00093084460451649,-1.7859431135167e-09,6.4853917360613e-07,-0.00095212745761148,0.00095588687153942,-0.00095188052368249,0.0009560970121822,-0.00095548668215087,0.00095251994691879,-0.00095527094275264,0.00095272160168894,-0.00098959748940994,0.0009805114049193,-0.00097962847823979,0.00099041978216735,0.78034425120572,1473840,32975,0.0048711788006971,0.0048712057888135,0.0038701834463422,38.10311735398,0.00022002493883184,0.00022002493883184,0.00022002493883184,2189140.5467864,0.013705693130056
6912000,0.78229658743774,0.013303749134624,0.0046644338723779,0.0046644631119047,0.0039748521503409,-0.0011909856363134,0.0011911194543296,-5.0982433774409e-06,5.2220460691022e-06,3.6819792109419e-08,1.3204433199427e-07,-0.0012288602837945,0.0012255398788514,-0.0012254501914813,0.0012289415672885,-0.0012288729205276,0.0012255510419185,-0.00122539966856,0.0012290143416883,-0.0011128633806004,0.0011028060123421,-0.0011026588365224,0.00111298425701,1.5734817771841e-07,6.9043363265616e-08,4.771058308546e-07,-1.891324952728e-07,-0.0011909336050127,0.0011911880195985,-0.0012269758572864,0.0012274649275337,-0.0012271690719588,0.0012272475107996,-0.0012269660459226,0.0012274340719387,-0.0012272206466828,0.001227191834457,-0.00110732485547,0.0011082733217348,-0.0011080274230681,0.0011076129478423,-0.0011900567416008,0.0011901739289713,-0.001190182897461,0.0011899899782102,5.4635305864163e-06,-4.8749354789062e-06,-0.00094149400086183,0.00094206949279916,-3.3070688459109e-08,6.2877773122504e-07,-0.00096430584616748,0.00096809302992945,-0.00096405497317251,0.0009683059963414,-0.00096774793984551,0.00096464296028032,-0.00096752713661619,0.00096484796085703,-0.0010028173973648,0.00099344199823536,-0.00099261415041762,0.0010035938487043,0.7681282579985,1473840,32975,0.0049503256963404,0.0049503597607416,0.0039169123572209,38.571771872756,0.00022377417498204,0.00022377417498204,0.00022377417498204,2177563.0814511,0.013913557394158
6998400,0.79401264428225,0.013496186589566,0.0047341984302242,0.0047342276768618,0.0040277604824802,-0.0012094253755871,0.0012083295352496,-5.824688409376e-06,4.7107322850976e-06,-5.8658184921925e-07,-4.6841881121397e-07,-0.0012487378127445,0.001244111443892,-0.0012452535080248,0.0012475835388889,-0.0012487424560537,0.0012441291680698,-0.0012451975268176,0.0012476649223838,-0.001128693684682,0.0011171955342329,-0.0011182771400032,0.0011275835547262,1.8607920247261e-07,6.8103929584008e-08,4.3381503114423e-07,-1.1763007324111e-07,-0.0012087460372155,0.0012090287398496,-0.0012462049134979,0.0012466915007601,-0.0012463621284234,0.0012465114774775,-0.0012461978352833,0.0012466519905377,-0.0012464172850364,0.0012464486060351,-0.0011224810567393,0.0011233346553731,-0.0011230726762969,0.0011227915966608,-0.001207607972055,0.0012078202502039,-0.0012077599976374,0.0012076034687756,5.7191939481998e-06,-4.8336442857272e-06,-0.00095211977202915,0.00095298995404335,1.6912273960551e-07,7.186275196295e-07,-0.00097543951130393,0.00097962915897535,-0.00097522600512877,0.00097980549680322,-0.00097895782294,0.00097611285515815,-0.0009787734717291,0.00097628005597003,-0.0010152156072978,0.0010058894405182,-0.0010047909571489,0.0010162398831396,0.76400246394167,1473840,32975,0.0050242203035979,0.0050242612659366,0.003961651759279,39.040433122389,0.00022752346497911,0.00022752346497911,0.00022752346497911,2202671.8804057,0.014108792660864
7084800,0.8054810340726,0.013683953168423,0.0048022957642108,0.0048023254886926,0.0040793319155201,-0.0012266858150768,0.0012266819416271,-5.3605111552705e-06,5.3466608655466e-06,2.4089550563384e-08,7.175411587969e-09,-0.001267213831219,0.0012636639175539,-0.0012636743298821,0.0012671938510469,-0.0012672639943409,0.0012636371255362,-0.0012636606554656,0.0012672300310571,-0.0011434846046836,0.0011328743725294,-0.0011329016465505,0.0011434295636622,1.4330433705536e-07,1.6645247193915e-07,5.0717662878619e-07,-1.3717374564289e-07,-0.0012265236841888,0.0012268608013413,-0.0012651956334515,0.0012657230650722,-0.0012653807126813,0.0012655126129002,-0.0012651475541586,0.0012657285365423,-0.0012653958478758,0.0012654935434522,-0.0011376200069498,0.0011386648086235,-0.0011383015472687,0.0011380262118547,-0.0012254011494539,0.0012254990825241,-0.0012254181396022,0.0012254285096286,5.6965140317153e-06,-5.0298751002968e-06,-0.0009626083129102,0.00096326145853944,1.6974018338626e-08,6.5721780655288e-07,-0.00098664666385553,0.00099064781669581,-0.00098640275351185,0.00099085316236484,-0.00099021840618206,0.00098706807257301,-0.00099000511198317,0.0009872660592176,-0.0010274819667659,0.0010177996358144,-0.001016900729052,0.0010283288443943,0.76187602266604,1473840,32975,0.0050980319314939,0.0050980663779504,0.0040047611659391,39.509094283214,0.00023127275426571,0.00023127275426571,0.00023127275426571,2212667.9629378,0.014302230946636
7171200,0.81667916173531,0.01386606651319,0.0048683981945097,0.0048684279087278,0.0041292404099529,-0.0012439717090638,0.001244267906604,-5.2758593324694e-06,5.5609412306453e-06,4.7095733152783e-08,2.8435714961195e-07,-0.0012857385167839,0.001282364297202,-0.0012821576009112,0.001285936749457,-0.001285705345568,0.0012824197504585,-0.0012820611574867,0.0012860575234384,-0.001158236019513,0.0011478745636486,-0.0011475209645498,0.0011585662945918,2.9096443756384e-07,6.1968221016429e-08,5.0834486268336e-07,-9.2247198829397e-08,-0.0012439363848935,0.0012443184810099,-0.0012837496936157,0.0012843905839673,-0.0012839221650803,0.0012841940917669,-0.0012837875273466,0.0012843166668736,-0.001284022083004,0.0012840945487702,-0.0011525395207456,0.0011535051588307,-0.0011531768323476,0.0011529042018657,-0.0012426245598211,0.001243033429233,-0.0012428885587308,0.0012427029343761,5.8254505832479e-06,-5.0313235981815e-06,-0.00097242873324843,0.00097320768806705,1.0142850754095e-07,6.9858509712599e-07,-0.00099725856655162,0.0010014404088958,-0.00099702855948845,0.0010016333519808,-0.0010008720611021,0.00099781934599079,-0.0010006736002138,0.00099800220431633,-0.0010390539750821,0.0010293459515209,-0.0010283336988143,0.0010400106472051,0.75690079639094,1473840,32975,0.0051703017961248,0.0051703331708884,0.0040458091247261,39.977756231141,0.00023502204984913,0.00023502204984913,0.00023502204984913,2219029.0236554,0.014490490669611
7257600,0.82758573337279,0.014042113841707,0.004932356361565,0.0049323859271874,0.004177371552955,-0.0012608985481416,0.0012609273357058,-5.4896598945329e-06,5.5060349434103e-06,-1.1735829728509e-07,1.8409428434236e-07,-0.0013039932382251,0.001300277097554,-0.0013003584250148,0.0013039021011623,-0.0013039385599528,0.00130035425254,-0.0013002409172334,0.0013040434078056,-0.0011725251565592,0.0011617655454961,-0.001161658247911,0.0011726096742911,4.1920993064909e-07,1.2629536717487e-07,6.7691028299033e-07,-6.7051452639942e-08,-0.0012606314699202,0.0012612070836133,-0.0013017015809246,0.0013026045519552,-0.0013019238676352,0.0013023626974027,-0.0013017584196839,0.0013025069331549,-0.0013020397030415,0.0013022394316917,-0.0011664746112447,0.001167752648449,-0.001167251231661,0.0011670132507665,-0.001259134324755,0.0012597491151974,-0.0012594566763973,0.0012593553078299,5.9237399690845e-06,-5.0923192219316e-06,-0.00098176428936289,0.00098258003661409,4.8228858718942e-08,7.8823990745578e-07,-0.0010073655188407,0.0010115902809916,-0.0010070878926225,0.001011830154769,-0.0010110334208787,0.0010079172406357,-0.0010107862449179,0.0010081479748595,-0.0010500748587917,0.0010402982426481,-0.0010392004583292,0.0010511134276339,0.75136027561285,1473840,32975,0.0052399020912692,0.0052399281072442,0.0040846587102149,40.44641772303,0.00023877134178424,0.00023877134178424,0.00023877134178424,2230620.3360885,0.014671135179243
7344000,0.83808199327117,0.014210559496144,0.0049935932940389,0.0049936225469448,0.0042233436551605,-0.0012766756891463,0.0012766580798357,-5.5165006182248e-06,5.4861641787067e-06,-1.4089899955079e-07,1.6014449861492e-07,-0.0013210973637647,0.0013173317210702,-0.001317460474443,0.0013209607227924,-0.0013210431040721,0.0013174103566926,-0.0013173423772962,0.0013211021788796,-0.0011855724958789,0.0011747591511521,-0.0011746990414662,0.0011856066617282,2.6655551562227e-07,-2.8210822823463e-08,5.9902467176917e-07,-2.9965836411724e-07,-0.0012765416090394,0.0012768086024356,-0.0013189127245965,0.001319559526319,-0.0013191818321588,0.0013192637074279,-0.0013189701133966,0.001319461571754,-0.0013193005542884,0.0013191403229366,-0.0011795733289855,0.0011806925241116,-0.0011805017235652,0.0011798001485925,-0.0012748317906799,0.0012750888983626,-0.001275159000005,0.0012746990233243,5.8986869764489e-06,-5.124782206859e-06,-0.00099024821417666,0.00099100837433599,-5.5537118475123e-08,8.3822243193808e-07,-0.0010166398527839,0.0010207612599573,-0.0010163119749203,0.0010210520210547,-0.0010203110060719,0.0010170841748484,-0.0010200131498349,0.001017366013464,-0.0010601183091186,0.0010503341354998,-0.0010492388398285,0.0010611519738736,0.74719297866033,1473840,32975,0.0053051904009099,0.0053052242357,0.004119781452614,40.737816717136,0.00024110253373708,0.00024110253373708,0.00024110253373708,2241792.8560192,0.014839291358055
7430400,0.84803436257547,0.01436957108198,0.0050514260550145,0.0050514553199161,0.004266689707049,-0.0012911478660126,0.0012912257086945,-5.5377614253994e-06,5.6045777185778e-06,-7.23079538346e-08,1.8597752912031e-07,-0.0013368558030488,0.0013331527432242,-0.0013331731657392,0.0013368286203533,-0.0013368155189174,0.0013332173628032,-0.001333069541998,0.0013369569975378,-0.0011974788699774,0.0011866117011621,-0.001186471103513,0.0011975992249629,2.6519340562702e-07,1.3807375254384e-08,5.8097420948146e-07,-2.3978794220171e-07,-0.0012910407978585,0.0012913486431774,-0.0013347024472091,0.0013353496517624,-0.0013349455615598,0.0013350801592312,-0.0013347455908251,0.0013352651652178,-0.0013350507503447,0.0013349705507392,-0.0011914617056089,0.0011925592189867,-0.0011923148301,0.0011917442939229,-0.0012891189810338,0.0012893992481306,-0.0012894044322355,0.0012890550688848,5.8732745103423e-06,-5.290527531385e-06,-0.00099770193336339,0.0009982725252281,-1.1088277017104e-07,7.0401388502465e-07,-0.0010248580786804,0.0010288639006584,-0.0010245559859385,0.0010291285087126,-0.0010285755028126,0.0010251394038624,-0.0010283039717293,0.0010253950644455,-0.0010691703721969,0.0010590308194607,-0.0010581556575281,0.0010699889847281,0.7440523122583,1473840,32975,0.005365359987669,0.005365392621358,0.0041503505473191,40.784549229884,0.00024147639383907,0.00024147639383907,0.00024147639383907,2248235.2303766,0.014992453553074
7516800,0.85745344862197,0.014519446479744,0.0051059542354874,0.0051059834704935,0.0043075087737632,-0.0013048332348177,0.0013050297958819,-5.564247221857e-06,5.7500663473414e-06,-1.5153376369783e-08,2.4709911976943e-07,-0.0013517796373366,0.0013481359104633,-0.0013480390147912,0.0013518691840018,-0.0013517370880803,0.0013482021284477,-0.0013479334243612,0.0013519976786431,-0.0012086935776673,0.0011977800529187,-0.0011975161964793,0.0012089321889617,2.5575110644141e-07,8.1137455803479e-10,5.9495563119451e-07,-2.7654045061901e-07,-0.0013047971379005,0.0013050823767222,-0.0013496570745644,0.001350300750505,-0.0013499177809249,0.001350014418219,-0.001349702091661,0.0013502147473621,-0.0013500254376355,0.0013499039291782,-0.0012026381611049,0.0012037629853311,-0.001203543408736,0.0012028996627163,-0.0013026870789946,0.0013029304080957,-0.0013029762271458,0.0013025834814911,6.0456858913117e-06,-5.2904273143658e-06,-0.0010043268338536,0.0010050687405179,-5.1484667344488e-08,8.1494388829429e-07,-0.0010322749078122,0.001036492166998,-0.0010319561432211,0.0010367737551728,-0.0010360498218734,0.0010327097032052,-0.0010357605334799,0.0010329833046027,-0.0010773490967718,0.001067233312662,-0.0010661685015415,0.0010783592509637,0.74114180664131,1473840,32975,0.0054223133772082,0.0054223472809174,0.004178228767589,40.816147247822,0.00024172917798257,0.00024172917798257,0.00024172917798257,2251232.1225762,0.015136380131215
7603200,0.86635853760518,0.014660675910761,0.0051573490484459,0.0051573782911143,0.0043459485712004,-0.0013178034668902,0.0013180439805313,-5.6046564933179e-06,5.835006576546e-06,-2.9746985065437e-08,3.0566105543775e-07,-0.0013659561784979,0.0013622899419053,-0.0013621732173356,0.001366064151149,-0.0013658898082408,0.0013623806436482,-0.0013620443579169,0.001366218579704,-0.0012192249587199,0.0012082583185818,-0.0012079270201789,0.0012195346704785,2.8100492472554e-07,-4.7001874819899e-08,5.9023101916184e-07,-2.9503349205587e-07,-0.0013178006554402,0.0013180635295648,-0.0013638186476957,0.001364469640337,-0.001364084584882,0.0013641789917593,-0.0013638883409675,0.0013643593058556,-0.001364216297407,0.0013640434727973,-0.0012131621417814,0.0012142525542206,-0.001214078705185,0.0012133734973947,-0.0013154667156072,0.0013157554776356,-0.0013158273779654,0.0013153373712986,6.1265091598246e-06,-5.3356704427119e-06,-0.0010104373456957,0.0010112151418871,-4.0051814177422e-08,8.4028366064749e-07,-0.0010391693436095,0.0010434596211337,-0.0010388461200397,0.0010437460222885,-0.0010429859686446,0.0010396349911873,-0.0010426925600032,0.0010399131579556,-0.0010849586309784,0.0010747589243106,-0.0010736564982767,0.0010860087653705,0.73878159400647,1473840,32975,0.0054761451143538,0.0054761795352008,0.0042036909771627,40.846311582579,0.00024197049266063,0.00024197049266063,0.00024197049266063,2252441.0291309,0.015271534812497
7689600,0.87476989766579,0.014793799615471,0.0052057983763659,0.0052058276406142,0.004382173598491,-0.0013301670941384,0.0013303037414642,-5.7126584270022e-06,5.8378676452219e-06,-1.1506021910293e-07,2.884033464961e-07,-0.0013794671313199,0.0013756388599735,-0.0013756471423195,0.0013794498060913,-0.0013793794281578,0.0013757513663279,-0.0013754963731539,0.001379625658769,-0.0012292366603335,0.001218077333777,-0.0012178284635401,0.0012294616246444,4.216166059868e-07,2.6713822718259e-08,7.2503583923212e-07,-2.1149825661425e-07,-0.0013300041794209,0.0013304832155848,-0.0013771221014381,0.001378026733596,-0.0013774046458869,0.0013777190150728,-0.0013772121286383,0.0013778942838539,-0.0013775568584671,0.0013775614404889,-0.0012229532146354,0.0012242900358928,-0.001223919463648,0.0012233620545459,-0.0013274864051152,0.0013280381228496,-0.0013279121462286,0.0013275515606209,6.2317725474635e-06,-5.3416831608277e-06,-0.0010159866076059,0.0010168627795886,-1.6698024925653e-08,9.1552339743165e-07,-0.0010455067049032,0.0010499144953684,-0.0010451653273418,0.0010502173710562,-0.0010493607244709,0.0010460533305635,-0.0010490494907071,0.0010463479420246,-0.001091964453532,0.0010817719746213,-0.0010805500668683,0.0010931279909296,0.73730524524212,1473840,32975,0.005527154049826,0.0055271880965329,0.0042269536446129,40.876330298487,0.00024221064238789,0.00024221064238789,0.00024221064238789,2251017.874732,0.01539874058876
7776000,0.88270797281274,0.014919192828397,0.0052514360939506,0.0052514653639049,0.004416291370541,-0.0013418665398682,0.0013419858536236,-5.7724532766047e-06,5.880491231362e-06,-1.4738312557774e-07,3.0388947392929e-07,-0.0013922378049102,0.0013883412373194,-0.0013883839240743,0.0013921869297559,-0.0013921341473902,0.0013884705114339,-0.0013882169267769,0.0013923792200705,-0.0012386845921019,0.0012274251199573,-0.0012271763657745,0.0012389083989143,3.3513995755676e-07,-1.0927920542221e-07,6.7072364646483e-07,-3.8150315642314e-07,-0.0013418064817551,0.0013420623823361,-0.0013899438054374,0.0013906801186405,-0.0013902630194261,0.0013903333417531,-0.0013900491784477,0.0013905302836398,-0.0013904314741022,0.0013901588666258,-0.001232415614635,0.0012336249607276,-0.001233495016614,0.0012325823020286,-0.0013391642511579,0.0013395032672974,-0.0013396389976691,0.00133897002028,6.2569121467699e-06,-5.4194454941706e-06,-0.0010211147775486,0.001021938970317,-9.9165852297459e-08,9.4737234283549e-07,-0.0010514375294615,0.0010557901717617,-0.00105105882719,0.0010561310409854,-0.0010553263519743,0.0010518946208883,-0.0010549777171445,0.0010522275617749,-0.0010985079723876,0.0010882022791268,-0.0010869948467104,0.0010996587400778,0.73590666319323,1473840,32975,0.0055755875195862,0.0055756213744094,0.0042481570466117,40.906333960948,0.00024245067168758,0.00024245067168758,0.00024245067168758,2246430.0098255,0.01551864037465
7862400,0.89019318208164,0.015037223447015,0.0052943944852043,0.0052944237503825,0.0044484052114282,-0.0013528786596092,0.0013530597711404,-5.7944537273619e-06,5.9645250878344e-06,-1.6016288507574e-07,3.787667317489e-07,-0.0014042882570697,0.001400388732788,-0.0014003985313807,0.0014042692494886,-0.0014041555815246,0.001400547346213,-0.001400202696501,0.0014044908907518,-0.0012475203605858,0.0012362491154873,-0.0012359074064412,0.0012478350784755,3.5301641728384e-07,-1.7898565846841e-07,5.7548454528973e-07,-3.38297511626e-07,-0.001352875294405,0.001353079643014,-0.0014020263270406,0.001402695205087,-0.0014023008960695,0.0014023947091797,-0.001402160587254,0.0014025158180323,-0.0014024981188358,0.0014021906738203,-0.0012413530282457,0.0012423443044858,-0.0012422972439233,0.0012414390132259,-0.0013500634657131,0.0013504824364442,-0.0013506232750235,0.0013498642263163,6.3554696798056e-06,-5.4273657334752e-06,-0.0010257082456145,0.0010266218975323,1.32531800428e-08,9.2313444982966e-07,-0.0010567732830998,0.0010612956677244,-0.001056439848741,0.0010615914213764,-0.0010606974034594,0.0010573646800715,-0.0010603941200046,0.0010576525356924,-0.0011045239843962,0.0010941592960752,-0.0010929078124971,0.0011057205836091,0.73456826550604,1473840,32975,0.0056213348069443,0.0056213687295009,0.0042674348013372,40.93633605525,0.000242690688442,0.000242690688442,0.000242690688442,2240553.5487371,0.015631142383614
7948800,0.89724578922289,0.015148245537986,0.0053348003374448,0.0053348296048076,0.0044786155957338,-0.0013633434212314,0.001363444891204,-5.8884386495766e-06,5.9795242953439e-06,-1.0887305929599e-07,2.4649972023287e-07,-0.0014157069191157,0.0014117527116562,-0.0014117808962546,0.0014156697257416,-0.0014156353597411,0.0014118499238523,-0.0014116458969197,0.0014158298204948,-0.0012559318489265,0.001244414871928,-0.0012442124890414,0.0012561060210068,3.6204521951892e-07,1.4529420002869e-08,7.2272984660905e-07,-2.8234212057924e-07,-0.0013631990223821,0.0013636055973938,-0.0014133320426391,0.001414171219963,-0.0014136361608115,0.0014138402723098,-0.001413405204497,0.0014140535086491,-0.0014137728789514,0.0014136979347261,-0.001249464186805,0.0012508094355136,-0.0012504977445768,0.0012498151984087,-0.0013604013428046,0.0013608112930604,-0.0013607827684494,0.0013603769090763,6.4080167927634e-06,-5.4842684179726e-06,-0.0010299136739136,0.0010308233187203,-3.341507626471e-08,9.6672935938654e-07,-0.0010617371056737,0.0010662622578068,-0.0010613733741703,0.0010665871856812,-0.0010656978277578,0.0010622944077835,-0.001065364371702,0.0010626119789685,-0.0011100808162639,0.0010996365189071,-0.001098359550535,0.0011113046487789,0.73327776349722,1473840,32975,0.0056645192825403,0.0056645527853013,0.0042849081344018,40.966337982189,0.00024293070385751,0.00024293070385751,0.00024293070385751,2233592.3191419,0.015736617137489
8035200,0.90388580670625,0.015252604113208,0.005372777833299,0.0053728070866828,0.0045070191932266,-0.0013732172424455,0.0013732398959675,-5.9250392667577e-06,5.9369095129207e-06,-9.2344821153087e-08,1.505543482913e-07,-0.001426488791686,0.0014224950112095,-0.0014225650024096,0.0014264101823114,-0.0014264532561933,0.0014225547866647,-0.0014224660306969,0.0014265328062534,-0.0012637620537388,0.0012521338338933,-0.0012520486006253,0.0012638197359616,2.571801740329e-07,2.0863479770779e-08,7.0865897739648e-07,-3.6933801869363e-07,-0.0013730834577958,0.0013733901071814,-0.0014241502028357,0.0014248769446155,-0.0014244781557108,0.001424521608756,-0.0014241869520697,0.0014247964426256,-0.0014245782878326,0.0014244164095574,-0.0012572354821064,0.0012585884256959,-0.0012583400842641,0.0012575220879856,-0.0013702751576188,0.0013704525551237,-0.0013705472184465,0.0013701274978745,6.4108032185975e-06,-5.475833781353e-06,-0.0010337076704728,0.0010346286903948,-6.3966952715562e-08,1.0090867698553e-06,-0.001066283066212,0.0010707932676198,-0.0010658956690115,0.0010711433720636,-0.0010702421153755,0.001066827646926,-0.0010698847300466,0.0010671699236198,-0.0011151391120466,0.0011047357177839,-0.0011034225273319,0.0011163979879727,0.73202632275275,1473840,32975,0.0057052554319057,0.0057052891817481,0.0043007058134526,40.996339887918,0.00024317071910334,0.00024317071910334,0.00024317071910334,2225696.6140011,0.015835427008928
8121600,0.91014370868789,0.015350803217061,0.0054085093412927,0.0054085385891022,0.0045337552866657,-0.0013825284721425,0.0013826352088858,-5.8980037586469e-06,5.9940381802195e-06,-1.0538335349218e-07,2.4819202535605e-07,-0.0014367131209761,0.0014327565870189,-0.0014327798092896,0.0014366819928368,-0.0014366413995533,0.0014328533180548,-0.001432644362538,0.0014368417012304,-0.0012710814676501,0.0012595441656961,-0.0012593389033707,0.001271260850965,2.96562925217e-07,-5.0045010630145e-08,6.5730166902746e-07,-3.4874569594776e-07,-0.001382452171851,0.0013827279555123,-0.0014344027765765,0.0014351112867079,-0.0014347065512026,0.0014347801481818,-0.0014344759015482,0.0014349939221167,-0.0014348431719264,0.0014346380013068,-0.0012646694845029,0.0012658845662328,-0.0012657040267576,0.0012648886812232,-0.0013795143495998,0.001379793145688,-0.0013798943660227,0.0013793588417755,6.3737776767586e-06,-5.5433623402218e-06,-0.0010372481645014,0.0010380652839949,-7.9908547485784e-08,9.209685466654e-07,-0.001070524211684,0.0010749651871978,-0.0010701608129062,0.0010752912158558,-0.001074493275892,0.0010709892471152,-0.0010741599491257,0.001071307480849,-0.0011199546950999,0.0011093926720836,-0.0011082079955173,0.0011210850304887,0.73080588794713,1473840,32975,0.0057439967208654,0.0057440305089795,0.00431521213184,41.059593918772,0.00024367675135018,0.00024367675135018,0.00024367675135018,2217121.17507,0.015928880946505
8208000,0.91604968302387,0.015443338605595,0.0054421748598125,0.0054422041039161,0.0045589596418664,-0.0013914592236402,0.0013915706541564,-5.9203577073299e-06,6.0210424414014e-06,-1.2753216572025e-07,2.7524413128634e-07,-0.0014465162071302,0.0014425315109377,-0.0014425663164469,0.0014464734094789,-0.0014464281262964,0.0014426446738363,-0.0014424148184006,0.0014466494775394,-0.0012781057788858,0.0012665416634447,-0.001266315280316,0.0012783064642594,3.0797508001456e-07,-8.7941317509174e-08,5.9759390856759e-07,-3.1543967614848e-07,-0.0013913983902425,0.001391647904809,-0.0014442120495759,0.0014448798941626,-0.0014444853786073,0.0014445798393076,-0.0014443013094236,0.0014447461077929,-0.0014446380206831,0.0014444213345052,-0.0012717471160705,0.0012728282284799,-0.0012726910642971,0.0012719240941734,-0.0013883694527169,0.0013887008772495,-0.0013887975299788,0.0013882183822348,6.3784852380093e-06,-5.5883699937194e-06,-0.0010404935891917,0.0010412703868522,-5.3865246848801e-08,8.5398052440514e-07,-0.0010744436961167,0.0010788922150136,-0.0010741114690916,0.001079187284675,-0.0010784294330779,0.0010748997537,-0.0010781271348043,0.0010751870111627,-0.0011244588853622,0.001113777207677,-0.0011126639922401,0.001125517977759,0.72960979080801,1473840,32975,0.0057809959475985,0.005781029671582,0.00432862572495,41.165058401585,0.00024452046721268,0.00024452046721268,0.00024452046721268,2208027.7489272,0.016017693094886
8294400,0.92161913509815,0.015530522050702,0.005473886292857,0.0054739155325565,0.0045827202252881,-0.0013998930159136,0.0014000580194505,-5.9128447507718e-06,6.0673839831222e-06,-1.2384481327889e-07,3.2510404252053e-07,-0.0014557860151973,0.0014518264574239,-0.0014518233142414,0.0014557813827441,-0.0014556827266523,0.001451955119132,-0.0014516565236949,0.0014559728792082,-0.0012846973660212,0.0012731647860127,-0.0012728690350688,0.0012849672035933,3.200890165937e-07,-1.2183097757741e-07,6.2716013932201e-07,-3.6648126167319e-07,-0.0013998697071453,0.0014000977283455,-0.0014534842645442,0.0014541727811142,-0.0014537840101832,0.0014538458265833,-0.0014535888721579,0.0014540235425967,-0.0014539520227294,0.0014536718454559,-0.0012783336404126,0.0012794568678266,-0.0012793560868267,0.0012784733828945,-0.001396792134038,0.0013971199420767,-0.0013972653933811,0.0013965927784586,6.4106704609042e-06,-5.5954337568827e-06,-0.0010434018533064,0.0010442038670615,-8.1100461639625e-08,9.0710710335548e-07,-0.0010780356498817,0.0010824955792829,-0.0010776767174971,0.0010828174078035,-0.0010820343848203,0.0010784898711221,-0.0010817054072912,0.0010788039489116,-0.0011285617889044,0.0011178941954226,-0.0011167292442682,0.0011296733838095,0.72884500961733,1473840,32975,0.0058160364921095,0.005816070177668,0.0043407759727935,41.273141041574,0.00024538512833259,0.00024538512833259,0.00024538512833259,2198332.2239939,0.016101248754478
8380800,0.92686654568788,0.015612607304912,0.0055037355822229,0.0055037648160097,0.0046051069066798,-0.0014079410357077,0.0014080872959341,-5.9561173642898e-06,6.0917024744111e-06,-1.4239104098067e-07,3.2510214933757e-07,-0.001464614971871,0.0014606080913628,-0.0014606297173524,0.0014645856081148,-0.0014645056473954,0.0014607429336779,-0.0014604570337651,0.0014647832579663,-0.0012910099467645,0.0012793983983869,-0.0012791155764529,0.0012912673274931,3.3118665738941e-07,-1.2933569270287e-07,6.0648486872004e-07,-3.4207727542127e-07,-0.0014079065052881,0.0014081382519462,-0.0014622922630563,0.0014629755931366,-0.0014625771837756,0.0014626636866237,-0.0014624027714592,0.0014628202097254,-0.0014627510711028,0.0014624836418816,-0.0012846302269067,0.0012857067183285,-0.00128560854139,0.001284767586109,-0.0014048037273847,0.0014051685657541,-0.0014052950768731,0.001404622945689,6.4350310570365e-06,-5.6389599681959e-06,-0.0010460506619108,0.0010468335860571,-6.8318800324487e-08,8.7497987577364e-07,-0.0010813331740128,0.0010858116878507,-0.0010809891987252,0.0010861185917496,-0.0010853546400873,0.001081783526567,-0.0010850405667418,0.0010820826138885,-0.0011324145669579,0.0011216463968803,-0.0011205153989407,0.0011334917812334,0.72822748471161,1473840,32975,0.0058493280492214,0.0058493617830851,0.004351757659702,41.381471970315,0.00024625177576252,0.00024625177576252,0.00024625177576252,2187282.6971635,0.016180069214633
8467200,0.93180617721381,0.015689831277394,0.0055318093234493,0.0055318385533702,0.004626183400575,-0.0014155398891771,0.001415711483918,-5.9746842885834e-06,6.1354085640878e-06,-1.618310558274e-07,3.7024625424996e-07,-0.0014729610101857,0.001468937316402,-0.0014689548407146,0.0014729352202248,-0.001472830244183,0.0014690935689337,-0.001468760904073,0.0014731546497547,-0.0012969384619725,0.0012853120442468,-0.0012849828040108,0.0012972424455054,3.4358911194959e-07,-1.8161660826036e-07,4.4580273766899e-07,-2.2111634245322e-07,-0.0014155378261925,0.0014157299605807,-0.0014706851843993,0.0014712571816439,-0.0014708777141877,0.0014710394899494,-0.0014708168710652,0.0014710801415149,-0.0014710728081271,0.0014708377669215,-0.0012907189219261,0.0012914582125121,-0.0012914231173244,0.0012907967389679,-0.0014123656499377,0.0014128480098856,-0.0014129200649683,0.0014122382470791,6.4179745721234e-06,-5.718707465588e-06,-0.0010484747692393,0.0010491606579984,2.2576399249147e-08,6.850392852193e-07,-0.0010843484258429,0.0010888448049679,-0.001084097984476,0.0010890583988536,-0.0010883907466384,0.0010847958365031,-0.0010881702603581,0.0010850014670189,-0.0011360494385108,0.001125029013783,-0.0011240882123526,0.0011369357014159,0.72765586356174,1473840,32975,0.0058808493379349,0.0058808830424291,0.0043616449707102,41.489828131441,0.00024711862505152,0.00024711862505152,0.00024711862505152,2175623.8764322,0.01625418530969
8553600,0.93645208416173,0.01576242427879,0.0055581916811216,0.0055582209077171,0.004646011689951,-0.0014227421253879,0.0014228989039852,-5.9924892012951e-06,6.1383391615285e-06,-1.5653241025727e-07,3.5000677418092e-07,-0.0014808535757291,0.0014768167219942,-0.0014768405340568,0.0014808215899686,-0.0014807312756901,0.001476964423782,-0.0014766550543197,0.0014810324441872,-0.0013025344144896,0.0012908643829858,-0.0012905583478949,0.0013028148900061,3.3930289640095e-07,-1.6037589460111e-07,4.7518921420316e-07,-2.3357388917921e-07,-0.0014227242226019,0.0014229332310891,-0.0014785600903,0.0014791542573128,-0.0014787663628901,0.0014789226244753,-0.0014786833391288,0.0014789858075097,-0.0014789530640254,0.0014787294327947,-0.0012962596728453,0.0012970654953078,-0.0012970047900259,0.0012963628279864,-0.0014195917759044,0.0014200521546209,-0.0014201214000493,0.0014194675817827,6.4352453035376e-06,-5.7224762231764e-06,-0.0010505990199626,0.0010512984079319,8.6845989953444e-09,7.1270950894049e-07,-0.0010871022296399,0.0010916052455993,-0.0010868379923638,0.0010918326201429,-0.0010911516417396,0.0010875492943422,-0.0010909172973792,0.001087768739183,-0.0011392778875505,0.001128264596081,-0.0011272962326487,0.0011401916191806,0.72712544267251,1473840,32975,0.0059106437816988,0.0059106775067423,0.0043705169820933,41.598186891572,0.00024798549513258,0.00024798549513258,0.00024798549513258,2163673.4647637,0.016323764758571
8640000,0.94081807204085,0.015830610658906,0.0055829647263943,0.0055829939499065,0.004664651982605,-0.0014295266235131,0.0014297073474829,-6.0166823362188e-06,6.186518314727e-06,-1.6152765483532e-07,3.7904501511768e-07,-0.001488313032949,0.001484264672126,-0.0014842757760267,0.0014882935476589,-0.0014881794847225,0.0014844236750771,-0.0014840791796636,0.0014885158415892,-0.0013077963836316,0.001296090722342,-0.0012957494664666,0.0013081121956106,3.5020278787708e-07,-1.8343972088222e-07,3.9995577653289e-07,-1.7037785545503e-07,-0.0014295266922714,0.0014297237047022,-0.0014860368758071,0.001486584508275,-0.0014861977114253,0.0014863992098154,-0.0014861713110817,0.0014864047111974,-0.0014863956226831,0.0014861946698803,-0.0013015830471014,0.0013022297375629,-0.0013021933306376,0.0013016635637322,-0.0014263855117626,0.0014269132976589,-0.0014269483964619,0.0014262952980023,6.4471044279131e-06,-5.783349971806e-06,-0.0010525294213389,0.0010531797263309,5.2632874645279e-08,6.1873164765617e-07,-0.0010896008737228,0.0010941252356321,-0.0010893825460976,0.0010943067366753,-0.0010936744756168,0.0010900450070542,-0.0010934860487483,0.0010902185598145,-0.0011423350799029,0.0011311556895233,-0.0011302823440097,0.0011431538351415,0.72663263289782,1473840,32975,0.005938787498723,0.0059388212222603,0.0043784543496408,41.706545911909,0.00024885236729527,0.00024885236729527,0.00024885236729527,2151528.9054007,0.016389043264855
8726400,0.9449176566472,0.015894608833336,0.005606208461691,0.0056062376825228,0.004682162689122,-0.0014359463859978,0.0014361199499947,-6.0578400183537e-06,6.2204573043442e-06,-1.6810278145353e-07,3.7849054503239e-07,-0.0014953705380625,0.0014912880742032,-0.0014913082637115,0.0014953419974504,-0.001495235056891,0.0014914490593345,-0.0014911098031779,0.0014955662675408,-0.0013127668895538,0.0013009826348455,-0.0013006464949802,0.0013130775834781,3.5943183129143e-07,-1.801773906951e-07,4.0887447065808e-07,-1.6661558581478e-07,-0.0014359365898503,0.0014361461835625,-0.001493069286532,0.0014936330924634,-0.001493231835538,0.0014934460710962,-0.0014932056046789,0.0014934513404253,-0.0014934316304962,0.0014932395847577,-0.0013065064102082,0.0013071688826694,-0.0013071216439033,0.0013065975748966,-0.0014328335968454,0.0014333779777471,-0.0014334023888342,0.0014327542766944,6.4853220824524e-06,-5.8206361440858e-06,-0.0010542280708572,0.0010548793301768,5.0629101128772e-08,6.2178912644588e-07,-0.001091868509828,0.0010964172988657,-0.0010916485010543,0.0010966004487109,-0.001095967346229,0.0010923119578122,-0.0010957772000479,0.0010924871659868,-0.0011451045845338,0.0011338541570396,-0.00113297812707,0.0011459260158209,0.72617462143489,1473840,32975,0.005965355477832,0.0059653892204949,0.0043855334016965,41.814904950369,0.00024971923960295,0.00024971923960295,0.00024971923960295,2139278.4533244,0.016450250072721
8812800,0.94876402878983,0.015954118000941,0.0056278300571478,0.0056278592755732,0.0046984286682198,-0.0014419945443072,0.0014421099611995,-6.1097982885295e-06,6.2125618401252e-06,-2.0184285386589e-07,3.5696525598224e-07,-0.0015020204748187,0.0014978626654237,-0.0014979456519492,0.0015019292861368,-0.001501883051491,0.001498026047668,-0.0014977403675211,0.0015021598516897,-0.0013174586159891,0.0013055686142265,-0.001305287707324,0.0013177137965178,3.7162715976807e-07,-1.8076860810734e-07,4.1390462467257e-07,-1.6076464366678e-07,-0.0014419513214228,0.0014421716269208,-0.0014996761101377,0.0015002526582265,-0.0014998360048713,0.0015000680301684,-0.0014998152149446,0.0015000693002596,-0.0015000436397476,0.001499855400252,-0.0013111426831081,0.0013118142383467,-0.001311763554316,0.0013112387349334,-0.0014388523584776,0.0014394302002696,-0.0014394398693193,0.0014387794047534,6.5097960375304e-06,-5.8410444836146e-06,-0.0010556731614046,0.001056326642466,5.2111789396781e-08,6.2263485020166e-07,-0.0010939190837248,0.0010984837843969,-0.0010937000262406,0.0010986679763269,-0.0010980335480766,0.0010943649715656,-0.0010978431189182,0.0010945420507066,-0.001147492069836,0.0011361970876153,-0.0011353145105177,0.0011483142515938,0.71961928133006,1473840,32975,0.0059902780293026,0.0059903159220221,0.0043915621666797,41.923264097125,0.000250586112777,0.000250586112777,0.000250586112777,2127710.2181865,0.016507052133475
8899200,0.95235060492153,0.016009400574755,0.0056479148437391,0.0056479440943256,0.00471354163669,-0.0014468632662657,0.0014469474995471,-6.1470494565419e-06,6.2195033080485e-06,-2.1673199479787e-07,3.3828929397252e-07,-0.0015078184545049,0.0015036148905006,-0.0015037268058274,0.0015076981597541,-0.0015076801507888,0.0015037785134386,-0.0015035255721629,0.0015079251917707,-0.0013206174954516,0.0013086589768254,-0.0013084100812329,0.0013208407311639,3.5359300864888e-07,-1.9524937474124e-07,4.0657004963733e-07,-1.8547718403104e-07,-0.0014468193575623,0.0014470079604778,-0.0015054632535381,0.0015060143841981,-0.001505631286987,0.0015058217879185,-0.0015056020550279,0.0015058296534976,-0.0015058335464914,0.001505612341721,-0.0013142732517521,0.0013149278420506,-0.0013149049907177,0.0013143405113723,-0.0014434636578178,0.0014439906859437,-0.001444041076953,0.0014433573478291,6.5369810372203e-06,-5.8577595155978e-06,-0.0010567032997987,0.0010573688466057,4.9468884912581e-08,6.3717003239912e-07,-0.0010952245714183,0.0010998115181266,-0.0010949992341548,0.0011000004884446,-0.0010993533263326,0.0010956771505434,-0.0010991577168035,0.0010958578978759,-0.0011494602047347,0.0011381426945953,-0.0011372456269897,0.0011503006894457,0.71680617321887,1473840,32975,0.0060103730668821,0.0060104070426399,0.0043958841939481,41.925664786832,0.00025060531829466,0.00025060531829466,0.00025060531829466,2127422.0356945,0.016552298293271
8985600,0.95567271419782,0.016060680027095,0.0056665332343879,0.0056665624849407,0.0047275843077664,-0.0014514106955699,0.0014515766567047,-6.1109033840741e-06,6.2650761522489e-06,-1.7692570346403e-07,3.79808039942e-07,-0.0015130330741727,0.0015089076984176,-0.0015089383617557,0.0015129939659153,-0.0015128936567605,0.0015090720220439,-0.0015087364856779,0.0015132213755126,-0.0013237741667084,0.00131188876744,-0.0013115582146949,0.0013240795473436,3.5531422675438e-07,-1.9454658419204e-07,4.2008071721544e-07,-1.964444126538e-07,-0.0014514064683277,0.0014515976334164,-0.0015107111086423,0.0015112737642889,-0.0015108874173585,0.0015110729897767,-0.001510850763062,0.0015110886365622,-0.0015110909178253,0.0015108635095465,-0.0013174537296412,0.0013181346941905,-0.0013181095414636,0.0013175229929814,-0.0014479725532291,0.0014484947407979,-0.001448550913267,0.0014478598752083,6.5655650154594e-06,-5.8390493125264e-06,-0.0010573872540104,0.0010580997258628,6.0787284093432e-08,6.729091015545e-07,-0.0010963347792929,0.0011009635885156,-0.0010961014211692,0.0011011603776248,-0.0011004666834922,0.0010968257098028,-0.0011002629183113,0.0010970146375717,-0.001151004677908,0.001139732289192,-0.0011387796591324,0.0011518995309006,0.71784137775437,1473840,32975,0.0060293701522386,0.006029404535802,0.0043988439548524,41.804214274361,0.00024963371419489,0.00024963371419489,0.00024963371419489,2119252.1123106,0.016593933899429
9072000,0.95874906889565,0.016108104008813,0.0056837457001483,0.0056837749537104,0.0047405833549549,-0.0014559876033003,0.0014561642206916,-6.1102710621751e-06,6.2756482117482e-06,-1.7962719709386e-07,3.9323276957561e-07,-0.001518023623975,0.0015138997683875,-0.0015139256830322,0.0015179896115039,-0.0015178794617376,0.0015140695264169,-0.0015137184675614,0.0015182226338158,-0.0013272248421005,0.0013153464287909,-0.0013149988663814,0.0013275469423821,3.6051243245768e-07,-2.0548207750251e-07,4.5289152346907e-07,-2.3499680289721e-07,-0.0014559914344946,0.00145617685077,-0.001515691137722,0.0015162767031724,-0.0015158904921706,0.0015160522015259,-0.00151583596204,0.0015160862046011,-0.0015160989246091,0.0015158368795595,-0.001320879006593,0.0013216185874459,-0.001321604110519,0.001320936512872,-0.0014526818565284,0.0014531906932393,-0.0014532764483601,0.0014525407416225,6.5607758825753e-06,-5.8539058060499e-06,-0.0010579924016219,0.0010586858002356,1.601082144463e-08,6.9927519761924e-07,-0.0010974950938072,0.0011020846900827,-0.0010972379981715,0.0011023053321865,-0.0011016302502224,0.0010979432636733,-0.0011014028725724,0.001098155905068,-0.0011524583324214,0.0011411814166616,-0.0011402252688468,0.0011533589599778,0.71683841310515,1473840,32975,0.0060483410090192,0.0060483747939077,0.0044013421315492,41.675045944598,0.00024860036755678,0.00024860036755678,0.00024860036755678,2103485.2133547,0.016635047993472
9158400,0.96159828373858,0.016151957708299,0.0056996582980316,0.005699687550024,0.0047526118602434,-0.0014600245854639,0.0014602033288158,-6.1031404456962e-06,6.2708175173225e-06,-1.6388792862312e-07,3.7928039562764e-07,-0.0015225549997036,0.0015184470800162,-0.0015184609347203,0.0015225328086971,-0.0015224204370203,0.0015186068436261,-0.0015182634571421,0.0015227559948453,-0.0013300941920927,0.0013182199182533,-0.0013178799833305,0.0013304088826713,3.4972924689851e-07,-1.8652725387174e-07,3.7459976344589e-07,-1.4882783770519e-07,-0.0014600255003202,0.0014602188716909,-0.0015202581958462,0.001520787413236,-0.0015204035791494,0.0015206179296332,-0.0015203933983632,0.0015206068300651,-0.0015206023887116,0.0015204125454945,-0.001323821751381,0.0013244178383785,-0.0013243864977411,0.0013238978648804,-0.0014567169269575,0.0014572593922273,-0.0014572826210515,0.0014566391120921,6.5239891182774e-06,-5.8788930472365e-06,-0.0010584523644906,0.0010590839696391,6.6554629975386e-08,5.8585824676924e-07,-0.0010983648830503,0.001102943685071,-0.0010981623903537,0.0011031098078059,-0.0011024960302716,0.0010988061228749,-0.0011023232906815,0.0010989642144198,-0.0011537301428616,0.0011423483013895,-0.0011415089202017,0.0011545146007554,0.71554035915281,1473840,32975,0.0060650586035588,0.0060650923810424,0.0044031464433511,41.545144021712,0.0002475611521737,0.0002475611521737,0.0002475611521737,2092368.0804086,0.01667087679542
9244800,0.96423767996104,0.016192514673885,0.005714370449738,0.005714399700257,0.0047637445238897,-0.0014637260193778,0.0014638966459152,-6.1188235772381e-06,6.2784410939634e-06,-1.5979659005182e-07,3.6694419864273e-07,-0.0015267483301763,0.0015226299663779,-0.0015226464836308,0.0015267234768897,-0.001526619139487,0.0015227842316175,-0.0015224543952599,0.0015269411734324,-0.0013326914505984,0.0013207809393309,-0.0013204544243758,0.0013329926519488,3.4577245686643e-07,-1.7402368490062e-07,3.8195092945505e-07,-1.4772928697659e-07,-0.0014637186380724,0.0014639204767301,-0.0015244436673138,0.0015249779577815,-0.0015245911438504,0.0015248063895589,-0.0015245734638415,0.0015248029086374,-0.0015247845573924,0.0015246065262902,-0.001326391008474,0.001327007188402,-0.001326961743636,0.0013264809805454,-0.001460418673311,0.0014609513579541,-0.0014609683290866,0.0014603474916719,6.5382980672557e-06,-5.8881077983731e-06,-0.0010587560555069,0.0010593927596495,6.607374190154e-08,5.9154055620606e-07,-0.0010990634937766,0.0011036531558074,-0.0010988589762219,0.0011038213458689,-0.0011032025104411,0.0010995077730871,-0.0011030277330138,0.0010996679116243,-0.0011547912698232,0.0011433937250406,-0.0011425472906218,0.0011555830568009,0.71424965986429,1473840,32975,0.006080365429059,0.0060803991877925,0.0044044398650827,41.415167417286,0.00024652133933828,0.00024652133933828,0.00024652133933828,2082181.3503172,0.016703318562652
9331200,0.96668327615866,0.016230031013615,0.0057279757347855,0.005728004983626,0.0047740502952033,-0.0014671420647623,0.0014673004176652,-6.1251429041905e-06,6.2723872878048e-06,-1.5997579974992e-07,3.5477847343389e-07,-0.0015306265311838,0.0015264998642553,-0.0015265246521735,0.0015305935012623,-0.0015305012436065,0.0015266501247787,-0.0015263364609142,0.001530807147351,-0.0013350521328451,0.0013231249600347,-0.0013228148326242,0.0013353369637486,3.3991955150336e-07,-1.6798297680479e-07,3.9904522649669e-07,-1.6485123400544e-07,-0.0014671285268664,0.0014673304100514,-0.0015283141072658,0.001528855764055,-0.0015284727838469,0.0015286727626774,-0.0015284399415921,0.0015286847060392,-0.0015286622433094,0.0015284768892177,-0.0013287246015177,0.0013293782401787,-0.0013293287900532,0.0013288183699119,-0.0014638408154315,0.0014643506612866,-0.0014643788893513,0.0014637585082445,6.5434383930957e-06,-5.8834111012963e-06,-0.0010589540486625,0.0010596005936731,5.4039280316845e-08,6.1361890755511e-07,-0.0010996407396124,0.0011042289813077,-0.0010994249286246,0.001104408584366,-0.0011037799433797,0.0011000834921441,-0.0011035938292517,0.001100255021262,-0.0011556922719591,0.001144315573585,-0.0011434477674975,0.0011565051625314,0.71296597605288,1473840,32975,0.0060944817875513,0.0060945155565631,0.0044053035845255,41.285183087288,0.0002454814646983,0.0002454814646983,0.0002454814646983,2072317.0830209,0.016732903588115
9417600,0.96894986853445,0.016264743398588,0.0057405606732972,0.0057405899208563,0.0047835928044342,-0.0014702846645224,0.0014704455447985,-6.1200725386215e-06,6.2697853571237e-06,-1.6192180281541e-07,3.5930220639695e-07,-0.0015342080501629,0.0015300843493832,-0.0015301087357582,0.0015341754128407,-0.0015340806324773,0.0015302367474807,-0.001529918434905,0.0015343912244425,-0.0013371897805386,0.001325274673001,-0.0013249599648384,0.0013374792047934,3.4336599997519e-07,-1.7097093342247e-07,3.916584868306e-07,-1.5700430462641e-07,-0.0014702721496216,0.0014704745118861,-0.0015318983316338,0.0015324375331695,-0.0015320519942385,0.0015322596389565,-0.0015320262612508,0.001532264330633,-0.0015322435515895,0.001532061615972,-0.0013308764240826,0.0013315134140908,-0.0013314658457453,0.0013309686045553,-0.0014669806635812,0.001467502406514,-0.0014675249620407,0.0014669038551732,6.5359169175815e-06,-5.8834042738543e-06,-0.00105907010735,0.0010597091329066,5.782442805765e-08,6.0220286719178e-07,-0.0011001062114653,0.0011046895319685,-0.0010998954820625,0.0011048640860364,-0.001104242912791,0.0011005465662953,-0.0011040618735012,0.0011007130377165,-0.0011564788482252,0.0011450969934055,-0.0011442416399331,0.0011572790716923,0.71168889007152,1473840,32975,0.0061074964375668,0.0061075302020791,0.0044057903653005,41.155197958529,0.00024444158366823,0.00024444158366823,0.00024444158366823,2062785.5768624,0.016759865724405
9504000,0.97105111726189,0.016296869941536,0.0057522049746114,0.0057522342209554,0.0047924307459696,-0.0014731851729702,0.0014733404011201,-6.1249650779599e-06,6.2690295231506e-06,-1.5810485994711e-07,3.4971224634569e-07,-0.0015375226834798,0.0015333964337668,-0.001533421986239,0.0015374888489591,-0.0015373996038553,0.0015335443312521,-0.0015332360755284,0.0015377001896892,-0.0013391484088833,0.0013272191587819,-0.0013269146413918,0.0013394278415263,3.3777353603408e-07,-1.6318720374616e-07,3.7699239545439e-07,-1.4031466302389e-07,-0.0014731688000705,0.0014733732329457,-0.0015352179710748,0.0015357444030536,-0.0015353613461154,0.0015355770031634,-0.0015353415083566,0.0015355756793823,-0.0015355485285174,0.0015353834581164,-0.0013328402315658,0.0013334529755576,-0.0013333990131052,0.001332938947454,-0.0014698810748127,0.0014704022936393,-0.0014704123407073,0.0014698169603662,6.5327646164753e-06,-5.8908423195479e-06,-0.0010591082698164,0.0010597367037531,6.8069220734443e-08,5.8119101836286e-07,-0.0011004672283352,0.0011050518303951,-0.0011002669370842,0.001105216031106,-0.0011046053622463,0.0011009074507117,-0.0011044347399207,0.001101063554142,-0.0011571610046467,0.0011457539498984,-0.0011449196804657,0.0011579401903895,0.71041796228107,1473840,32975,0.0061194916778316,0.0061195254556776,0.0044059466271139,41.025212750716,0.00024340170200573,0.00024340170200573,0.00024340170200573,2053593.6445545,0.016784419361205
9590400,0.9729996291416,0.016326611588005,0.0057629820469972,0.0057630112923244,0.0048006182486834,-0.0014758521745899,0.0014760131052471,-6.1323864138872e-06,6.2821946004043e-06,-1.6076097514135e-07,3.5807182693205e-07,-0.0015405884692489,0.0015364573983725,-0.0015364809356739,0.0015405567011962,-0.0015404617752543,0.0015366089784549,-0.0015362914166482,0.0015407717167181,-0.0013409286853473,0.00132898871985,-0.0013286747406342,0.0013412175783127,3.411627965126e-07,-1.7080282183149e-07,3.8280173968676e-07,-1.5021082488945e-07,-0.0014758407067564,0.0014760410265653,-0.0015382790250184,0.0015388102192716,-0.0015384275548344,0.0015386375618265,-0.001538406189804,0.0015386378339046,-0.0015386183519091,0.0015384403700502,-0.0013346114588916,0.0013352318812576,-0.0013351855650405,0.0013347024492751,-0.0014725530767516,0.0014730755962973,-0.0014730952276938,0.001472479578548,6.545250729483e-06,-5.8991206616266e-06,-0.0010590695391806,0.0010597022020992,6.2417905422658e-08,5.9118676427257e-07,-0.0011007356448291,0.001105326159975,-0.0011005301594123,0.0011054955835989,-0.0011048806910806,0.0011011748692695,-0.0011047048572306,0.0011013361748796,-0.001157733161514,0.001146315314253,-0.0011454716799591,0.0011585219216297,0.70915275953774,1473840,32975,0.0061305435348265,0.0061305772999072,0.0044058136766001,40.895227538488,0.0002423618203079,0.0002423618203079,0.0002423618203079,2044743.5506275,0.016806760894792
9676800,0.97479951201193,0.016354039623289,0.0057729183010803,0.0057729475454663,0.0048081737767422,-0.0014781397651643,0.001478297786761,-6.1347294813384e-06,6.281539247851e-06,-1.6355164673775e-07,3.5801785256859e-07,-0.0015432489285647,0.001539113507383,-0.0015391408308256,0.0015432133721088,-0.0015431213218979,0.0015392659852694,-0.0015389504243588,0.001543429273849,-0.0013423779687722,0.0013304341895752,-0.0013301222804177,0.0013426646178935,3.4279792586611e-07,-1.719144384255e-07,3.8131540067381e-07,-1.4831428456294e-07,-0.0014781266032005,0.0014783274025848,-0.0015409371877281,0.0015414686308321,-0.0015410846163787,0.0015412971161207,-0.0015410652144036,0.0015412953233739,-0.0015412762639345,0.0015410990159559,-0.0013360603773806,0.0013366768832546,-0.0013366312580347,0.0013361508897504,-0.0014748372663938,0.0014753642219051,-0.0014753820075823,0.0014747654133067,6.545299137161e-06,-5.9009006910926e-06,-0.0010588353129262,0.0010594661796971,6.317462481093e-08,5.8857560381114e-07,-0.0011007869720052,0.00110537741275,-0.0011005826261889,0.0011055457364629,-0.0011049326461758,0.0011012255481397,-0.0011047579464219,0.0011013857407237,-0.0011580615420035,0.0011466391201893,-0.0011457981331507,0.0011588473059597,0.70789657871915,1473840,32975,0.006140006533865,0.0061400402999198,0.004404856044242,40.684023842633,0.00024067219074107,0.00024067219074107,0.00024067219074107,2035996.5813584,0.016825033079556
9763200,0.9764556031197,0.016379298203961,0.0057820644651127,0.0057820937085883,0.0048151400302602,-0.0014800539965028,0.0014801888333093,-6.1453502230361e-06,6.2688446656738e-06,-1.7422809287036e-07,3.4558993790627e-07,-0.0015455091816754,0.0015413519084766,-0.0015414017401362,0.0015454511222091,-0.0015453820523834,0.0015415037796407,-0.0015412120549916,0.0015456664099812,-0.0013435137257553,0.0013315481749839,-0.001331260318538,0.0013437765512338,3.4200447240165e-07,-1.711168191881e-07,3.9059499650965e-07,-1.5774668559274e-07,-0.0014800292745818,0.0014802300033869,-0.0015431837718234,0.0015437207977631,-0.0015433374144661,0.0015435429271271,-0.0015433111974815,0.0015435480874657,-0.0015435284220895,0.0015433455186807,-0.0013371757962038,0.0013378109398147,-0.0013377648556833,0.0013372664508173,-0.0014767456488239,0.0014772647240039,-0.0014772886250402,0.0014766674661776,6.5478007921215e-06,-5.896394518361e-06,-0.0010584011401676,0.0010590389340012,5.7346172256272e-08,6.0141336934033e-07,-0.0011006172536376,0.001105207588561,-0.0011004067213539,0.00110538218981,-0.0011047622837154,0.0011010564775927,-0.0011045813028336,0.0011012229104426,-0.0011581461928771,0.0011467390115368,-0.0011458846922354,0.0011589449549203,0.70839618426685,1473840,32975,0.00614788165407,0.006147915408751,0.0044030858232037,40.385366653794,0.00023828293323035,0.00023828293323035,0.00023828293323035,2027274.4775477,0.016839249900127
9849600,0.97798031193852,0.016402572013477,0.0057904880932143,0.0057905173358267,0.0048215665844357,-0.0014819165632403,0.0014820774728938,-6.1299622419576e-06,6.2794549354273e-06,-1.6971080537002e-07,3.6722521847683e-07,-0.0015475892791823,0.0015434541556498,-0.0015434835622448,0.0015475516794752,-0.0015474567834788,0.0015436117082904,-0.0015432882588993,0.0015477727366548,-0.0013447407973709,0.0013328111437279,-0.0013324916583386,0.0013450353899371,3.5471539776886e-07,-1.7527089072992e-07,3.9992262034476e-07,-1.5813672335777e-07,-0.0014819005058221,0.0014821099771971,-0.001545266268533,0.0015458207558834,-0.0015454230941849,0.0015456397588836,-0.0015453992630713,0.0015456424078274,-0.0015456196906183,0.0015454366821118,-0.0013384145746702,0.0013390624587145,-0.0013390129082593,0.0013385083667761,-0.0014787105789579,0.0014792518545706,-0.0014792701743433,0.0014786376054078,6.5450001728179e-06,-5.8945855976824e-06,-0.0010579497600426,0.0010585866451511,5.2103242499177e-08,6.0585196728274e-07,-0.0011004818936557,0.0011050665661427,-0.001100268023556,0.0011052443169233,-0.0011046252919944,0.0011009169929621,-0.0011044410951723,0.0011010864784278,-0.0011581992727169,0.0011467983636494,-0.0011459417644674,0.0011590001420199,0.70888742347227,1473840,32975,0.0061556444558818,0.0061556782080509,0.0044012287142593,40.081264084806,0.00023585011267844,0.00023585011267844,0.00023585011267844,2015545.1310734,0.016853150313401
9936000,0.9793852955469,0.016424030004562,0.0057982514668987,0.0057982807086855,0.0048274978289781,-0.001483597498304,0.0014837698265539,-6.1270161245381e-06,6.2880815138943e-06,-1.7213987893617e-07,3.8106161730491e-07,-0.0015494753624811,0.0015453441923489,-0.0015453677115865,0.0015494436955185,-0.0015493374239023,0.0015455072457658,-0.0015451670339676,0.001549670147459,-0.0013458319928535,0.0013339141686397,-0.0013335775238405,0.0013461434885334,3.5445262523403e-07,-1.9185928353453e-07,3.9697831169813e-07,-1.7189867446614e-07,-0.0014835954921853,0.0014837882587234,-0.0015471581810656,0.0015477050572773,-0.0015473185114536,0.0015475204187313,-0.0015472965716792,0.0015475212327268,-0.0015475204985352,0.0015473118316489,-0.0013395173558891,0.0013401539183626,-0.0013401265422091,0.0013395892809604,-0.0014804952516459,0.0014810318392635,-0.0014810708715931,0.0014804019450414,6.5504450533043e-06,-5.8949349549471e-06,-0.0010574532622596,0.0010580952544419,4.9289340179785e-08,6.1382417658693e-07,-0.001100277594531,0.0011048657959621,-0.0011000602414497,0.0011050471472131,-0.0011044229796583,0.001100714207949,-0.0011042352485018,0.0011008874201172,-0.0011581808330056,0.0011467835437896,-0.0011459183143328,0.0011589907574482,0.7091438548156,1473840,32975,0.00616262495256,0.0061626586608418,0.0043991959225415,39.776645596604,0.00023341316477283,0.00023341316477283,0.00023341316477283,2004400.4322689,0.016865281105118
10022400,0.9806811245238,0.016443833502656,0.0058054134731711,0.0058054427140549,0.0048329773154304,-0.001485079055276,0.001485275198385,-6.1098552822709e-06,6.2948730573065e-06,-1.6399310035879e-07,3.9662764925267e-07,-0.0015511575857815,0.0015470513375443,-0.0015470534529979,0.0015511473546928,-0.0015510174356239,0.0015472168000142,-0.0015468504515562,0.0015513762489399,-0.0013467443410909,0.0013348628930569,-0.0013344999405347,0.001347082238348,3.7307243333234e-07,-1.8038141821861e-07,4.2538989809423e-07,-1.698997901678e-07,-0.0014850738130701,0.0014852968201985,-0.0015488322138837,0.0015494204557735,-0.0015490012320707,0.0015492270136943,-0.0015489731094119,0.0015492342346827,-0.0015492057303528,0.0015490160041933,-0.0013404213048327,0.0013411116432926,-0.0013410561027006,0.0013405208813189,-0.0014820541707725,0.0014826193042326,-0.0014826370453839,0.0014819823653935,6.5515206684505e-06,-5.8835944739381e-06,-0.0010569136306357,0.0010575680723165,4.2453404789213e-08,6.3334449523147e-07,-0.0011000066878409,0.0011045950935615,-0.0010997804413937,0.0011047851001234,-0.0011041485464562,0.0011004468234607,-0.0011039520255675,0.0011006287270262,-0.0011580787660841,0.0011467125981974,-0.0011458263216517,0.0011589099228649,0.70947160328745,1473840,32975,0.0061688057324949,0.0061688393448989,0.004396998269534,39.471974825049,0.00023097579860039,0.00023097579860039,0.00023097579860039,1994194.1572059,0.016875617762122
10108800,0.98187735856671,0.016462127957677,0.0058120271739204,0.005812056413813,0.0048380443699433,-0.0014864358742985,0.0014866121679544,-6.1192981404402e-06,6.2842869320303e-06,-1.7461638527917e-07,3.875347743536e-07,-0.0015526975307862,0.0015485711987725,-0.0015485938068413,0.0015526668993619,-0.0015525566064409,0.0015487372386182,-0.0015483900709781,0.0015528963402139,-0.0013475784333187,0.0013356786975441,-0.0013353352522095,0.0013478968758907,3.5561356851732e-07,-1.9966092141876e-07,4.1182785688607e-07,-1.9345700360426e-07,-0.0014864391862042,0.0014866253150632,-0.0015503787292247,0.0015509339907026,-0.0015505509278347,0.0015507372162683,-0.0015505200694885,0.0015507471793321,-0.0015507558933929,0.0015505255893871,-0.0013412601278373,0.0013419227638649,-0.0013419048410034,0.0013413221539906,-0.0014835014389551,0.0014840281244982,-0.0014840858608023,0.0014833893019093,6.549400115832e-06,-5.8846382626161e-06,-0.001056353610294,0.0010570049342556,3.5930252361101e-08,6.3678946359676e-07,-0.0010996968580214,0.0011042785160731,-0.0010994675046298,0.0011044720024307,-0.0011038384899114,0.001100130724422,-0.0011036387181642,0.0011003160263691,-0.0011579376482698,0.0011465729056733,-0.0011456862060702,0.0011587688802904,0.70986525560559,1473840,32975,0.006174379712603,0.0061744134895671,0.0043946829651679,39.167298691045,0.00022853838952836,0.00022853838952836,0.00022853838952836,1984303.3302721,0.01688460096908
10195200,0.98298264589566,0.01647904494266,0.0058181405769376,0.0058181698163425,0.0048427345493799,-0.0014875921999549,0.0014878132852813,-6.0909930829341e-06,6.3002375196632e-06,-1.6384184546088e-07,4.2364115691935e-07,-0.0015539814099638,0.0015498937475343,-0.0015498806230362,0.0015539821537302,-0.0015538337226449,0.0015500697107851,-0.0015496655356393,0.0015542218715359,-0.0013484128551004,0.0013365728875468,-0.0013361695965196,0.0013487807684279,3.3712944726586e-07,-2.4260971304698e-07,3.9417390032495e-07,-2.377556191327e-07,-0.001487648895219,0.0014877752997705,-0.001551703010428,0.0015522181435334,-0.0015518835960301,0.0015520106961595,-0.001551849909162,0.0015520229641135,-0.0015520949218522,0.0015517864021866,-0.0013421387885221,0.0013427613187357,-0.0013428125486118,0.0013421305330892,-0.0014847585744756,0.0014852368746669,-0.0014853630600048,0.0014845751487751,6.5504230653014e-06,-5.8688556724131e-06,-0.0010558104223747,0.0010564821263166,3.0243064878069e-08,6.5967158806457e-07,-0.0010994479925854,0.0011040344834582,-0.0010992100892068,0.0011042395255089,-0.0011035824662975,0.0010998924341201,-0.0011033725593705,0.0011000932457407,-0.001157644167765,0.0011463273795187,-0.0011454118676401,0.0011585093573293,0.71032017727556,1473840,32975,0.0061792570603857,0.0061792954998645,0.0043924845978113,38.862622103211,0.00022610097682569,0.00022610097682569,0.00022610097682569,1973732.3110796,0.01689229083067
10281600,0.98400481509604,0.016494703314839,0.0058237968033529,0.0058238260473772,0.0048470804641085,-0.0014887294312317,0.00148885255214,-6.1387174618225e-06,6.2469832268232e-06,-2.0705441389155e-07,3.695073119196e-07,-0.0015552551473309,0.0015510796973631,-0.0015511565426855,0.0015551621493462,-0.0015551134670796,0.0015512480326207,-0.0015509426500888,0.0015553980837242,-0.0013491500537671,0.0013372081525643,-0.0013369043275722,0.0013494073031189,3.5833573511108e-07,-2.1079359215787e-07,4.2743176830782e-07,-2.239164308555e-07,-0.0014887111655025,0.0014888885724506,-0.0015529045814742,0.0015534723802833,-0.0015530899381716,0.0015532597121892,-0.0015530440348555,0.0015532825688723,-0.0015532980564568,0.0015530362326897,-0.0013427866273153,0.0013434828122971,-0.0013434850963454,0.0013428303895036,-0.0014859025574445,0.0014864231989558,-0.00148650022241,0.0014857638884426,6.5536860192375e-06,-5.8601684784858e-06,-0.0010552014539036,0.0010558826064713,2.4777605866678e-08,6.7281342788626e-07,-0.001099084637439,0.0011036731983413,-0.0010988445003879,0.0011038863667888,-0.0011032208963921,0.0010995331530514,-0.0011030060569888,0.0010997463300828,-0.0011573679390675,0.0011460778068131,-0.0011451366515041,0.0011582463594413,0.71083234648173,1473840,32975,0.0061837601704591,0.0061837966293293,0.0043899906764059,38.557945405961,0.00022366356324768,0.00022366356324768,0.00022366356324768,1964347.615182,0.016898912274302
10368000,0.98495095774684,0.016509210675632,0.0058290353146316,0.005829064558331,0.004851110802669,-0.0014896973005838,0.0014898456173604,-6.1206040150681e-06,6.2527736621509e-06,-1.9242250392012e-07,3.8129953334362e-07,-0.0015563584472787,0.0015522115476367,-0.0015522628516709,0.0015562921415593,-0.0015562143257263,0.0015523799134058,-0.0015520499131968,0.0015565240786685,-0.0013496978654295,0.0013377943229402,-0.0013374690489464,0.001349978112917,3.7010096260615e-07,-1.9604558598445e-07,4.5336332866336e-07,-2.2353825183205e-07,-0.0014896772712819,0.0014898817550912,-0.0015540018309897,0.0015546047563432,-0.001554196500928,0.0015543866281672,-0.0015541411748222,0.0015544165798609,-0.0015544052454563,0.0015541633559004,-0.0013433277292952,0.0013440763003579,-0.0013440515293128,0.0013433965556403,-0.0014869562395843,0.0014874946297398,-0.001487552071521,0.0014868364507754,6.5314301351703e-06,-5.873085098145e-06,-0.0010545878554573,0.0010552338453327,-3.8177859170256e-09,6.6953716188065e-07,-0.0010986901139933,0.0011032326914146,-0.0010984444125111,0.0011034522963003,-0.001102826579224,0.0010990969239684,-0.0011026027488393,0.0010993156860791,-0.0011570947742172,0.0011457875315894,-0.001144872016379,0.0011579417016499,0.71139824263143,1473840,32975,0.0061878171941117,0.0061878502433756,0.0043873845369422,38.253268709241,0.00022122614967392,0.00022122614967392,0.00022122614967392,1955411.3839951,0.016904510869447
10454400,0.98583381345705,0.01652276071074,0.0058339263582877,0.0058339555958709,0.0048548787565815,-0.0014908658520186,0.0014910476832558,-6.0926156467376e-06,6.263144337454e-06,-1.7994830563328e-07,3.9846064402431e-07,-0.0015577010559972,0.0015535908325976,-0.0015536133856037,0.0015576705741019,-0.0015575548588023,0.001553762289558,-0.0015534041474428,0.0015579054511509,-0.0013502320693975,0.0013383899770353,-0.0013380354040392,0.0013505615738556,3.5908832873552e-07,-2.1245834833247e-07,4.3969724190502e-07,-2.3066688447494e-07,-0.0014908765426932,0.0014910534497517,-0.0015553815693724,0.001555954588188,-0.0015555750742968,0.0015557361213578,-0.0015555281278159,0.0015557623863835,-0.0015557853729325,0.0015555189287316,-0.0013439183903261,0.0013446301836236,-0.0013446264314446,0.0013439651387232,-0.0014882757875847,0.0014887876303689,-0.0014888763556437,0.001488132837213,6.5352851066283e-06,-5.8511349652095e-06,-0.0010541145873009,0.00105478541865,1.3445534991429e-08,6.7927502334225e-07,-0.0010983516205361,0.0011029151653339,-0.0010981007578934,0.0011031303751028,-0.0011024774404374,0.0010987832790139,-0.0011022560990704,0.0010989903527536,-0.0011571388048995,0.0011458618225315,-0.0011449341278553,0.0011580112952831,0.71201274233682,1473840,32975,0.0061927229869844,0.0061927567622071,0.0043854859481025,38.084911662859,0.00021987929330287,0.00021987929330287,0.00021987929330287,1948090.259598,0.016912559414411
10540800,0.98666388784159,0.016535449738588,0.0058385070565089,0.005838536293683,0.0048584063883961,-0.0014922034401823,0.0014923893012245,-6.0865500308766e-06,6.260851456026e-06,-1.8045328942793e-07,4.0315288314642e-07,-0.0015591567968357,0.0015550519639657,-0.0015550721111854,0.0015591289266699,-0.001559008954329,0.0015552250418241,-0.0015548613492702,0.0015593655304115,-0.0013511770878902,0.0013393486247868,-0.0013389892222339,0.0013515118960974,3.7066065277949e-07,-2.0594033647488e-07,4.4708467465955e-07,-2.1972868163732e-07,-0.0014922071256551,0.0014924021890211,-0.0015568308943378,0.0015574223630272,-0.0015570231030709,0.0015572051302542,-0.0015569790250773,0.001557228720377,-0.0015572351513335,0.0015569862875643,-0.0013448634396467,0.0013455887777153,-0.0013455693234867,0.0013449274173908,-0.0014896901780838,0.0014902266926831,-0.0014902957994903,0.0014895659257997,6.5286718335836e-06,-5.8495214980978e-06,-0.0010539106694489,0.0010545763462927,1.2462840672772e-08,6.747522379603e-07,-0.0010983542059548,0.0011029111798713,-0.0010981045439845,0.0011031250717289,-0.001102477197118,0.00109878195382,-0.0011022568471849,0.0010989878693572,-0.001157272646723,0.0011459979255488,-0.0011450755297828,0.0011581384473506,0.70913079683443,1473840,32975,0.0061982671915633,0.0061983012075434,0.0043846413045424,38.051782349694,0.00021961425879755,0.00021961425879755,0.00021961425879755,1940478.269982,0.016922977720748
10627200,0.98744471369773,0.016547369061016,0.0058428093765146,0.0058428386135742,0.0048617210709273,-0.0014931726568721,0.0014933316799309,-6.0939772265556e-06,6.2416732959939e-06,-1.6280939949225e-07,3.581679821775e-07,-0.0015604278901674,0.0015563207178644,-0.0015563466651545,0.0015603935039001,-0.0015603003909579,0.0015564728468286,-0.0015561564004525,0.0015606092738456,-0.0013515955328596,0.0013397311541234,-0.0013394185716076,0.001351882984518,3.4223528266538e-07,-1.7188464650195e-07,3.2804701541301e-07,-9.5736281520992e-08,-0.001493160278009,0.0014933605240869,-0.0015581479788308,0.0015586435098762,-0.0015582605953414,0.0015585075281583,-0.001558275678528,0.0015584705122445,-0.0015584520488652,0.0015583095395832,-0.0013453695697373,0.001345882074181,-0.0013458375353657,0.0013454602497311,-0.0014905435492071,0.001491104768009,-0.0014910879855026,0.0014905066080481,6.48453384237e-06,-5.8818787269194e-06,-0.0010536736658786,0.001054262828873,9.4668282607361e-08,5.1463825295199e-07,-0.0010981318107587,0.0011026893647514,-0.0010979628227182,0.001102822781233,-0.001102250967823,0.0010985641503844,-0.0011021114678478,0.0010986894382076,-0.0011573805637736,0.0011459597609795,-0.0011451954799218,0.0011580894737788,0.70805560728393,1473840,32975,0.0062022232482677,0.0062022570407861,0.0043835075227962,38.027034272286,0.00021941627417828,0.00021941627417828,0.00021941627417828,1938836.047019,0.016929870826409
10713600,0.988179256222,0.016558558236298,0.0058468477522826,0.0058468769890183,0.0048648334949967,-0.0014942375369223,0.0014943953785131,-6.0916996627476e-06,6.2382249000467e-06,-1.6048862657153e-07,3.5461717776558e-07,-0.0015616897131075,0.0015575852316006,-0.0015576104255453,0.0015616561318865,-0.001561564161024,0.0015577354001112,-0.0015574220857924,0.0015618699293427,-0.0013522196845111,0.0013403577671802,-0.001340048327261,0.0013525040113271,3.4149279142085e-07,-1.6673047391253e-07,3.382056771463e-07,-1.0150333974594e-07,-0.0014942223690001,0.0014944270012383,-0.0015594073049431,0.0015599105323479,-0.0015595251427277,0.0015597692179768,-0.0015595330731255,0.00155973951475,-0.0015597146713195,0.0015595732012588,-0.0013459839579997,0.0013465184333776,-0.0013464674926707,0.0013460809230257,-0.0014916148056296,0.0014921693645232,-0.0014921535133685,0.0014915770079357,6.4831867969256e-06,-5.8775522952242e-06,-0.0010534299787943,0.0010540221367433,8.8346206007873e-08,5.2405596412696e-07,-0.0010980149676959,0.0011025683663789,-0.0010978407352975,0.0011027070249063,-0.0011021322243815,0.0010984450342679,-0.0011019874867067,0.0010985755640338,-0.0011574394976056,0.0011460325140196,-0.001145259994312,0.00115815666049,0.70657683257276,1473840,32975,0.006206628093854,0.0062066618649579,0.0043825123755951,38.003075468743,0.00021922460374995,0.00021922460374995,0.00021922460374995,1934294.6159271,0.016937818284403
10800000,0.98887027472956,0.016569061855492,0.0058506384324579,0.0058506676688454,0.0048677557541883,-0.0014951975883893,0.0014953577345555,-6.0868964205644e-06,6.2356751146424e-06,-1.6550441516208e-07,3.6203844949078e-07,-0.0015628647123113,0.001558760852345,-0.001558787854115,0.0015628292933335,-0.001562735066153,0.0015589151769666,-0.0015585954495579,0.0015630472404749,-0.001352732298905,0.0013408839618083,-0.0013405680325066,0.001353022911831,3.4515784147543e-07,-1.7551078415296e-07,3.3921259403389e-07,-1.0754887319785e-07,-0.0014951860937072,0.0014953856849402,-0.0015605819241803,0.0015610866116007,-0.0015607021337973,0.0015609429265045,-0.0015607117679366,0.0015609114290866,-0.0015608957117893,0.0015607427709856,-0.0013465044201438,0.0013470365936924,-0.0013469947927156,0.0013465921896567,-0.0014925568031409,0.001493116067635,-0.0014931075906805,0.0014925114457555,6.4832390544718e-06,-5.8701750801777e-06,-0.0010531685181674,0.001053768034655,8.8515178331826e-08,5.3127989407616e-07,-0.0010978549888197,0.0011024108872605,-0.0010976784205743,0.001102551911196,-0.0011019698019968,0.0010982900282313,-0.0011018227207854,0.0010984229122345,-0.0011574667226359,0.0011460767285035,-0.0011452943425424,0.0011581936254233,0.70503247766212,1473840,32975,0.0062106062899444,0.0062106400633164,0.0043814517404137,37.979196233769,0.00021903356987015,0.00021903356987015,0.00021903356987015,1930576.9538622,0.016944831357288
10886400,0.98952036265961,0.016578921107759,0.0058541963389262,0.0058542255749969,0.0048704991938354,-0.001496089984578,0.0014962547574477,-6.0819465206966e-06,6.2353668022331e-06,-1.6659882802369e-07,3.6775871130913e-07,-0.0015639671692699,0.0015598674253881,-0.0015598920902047,0.0015639341321702,-0.0015638352739816,0.0015600240293952,-0.0015596974363794,0.0015641543525601,-0.0013531929872514,0.0013413567179963,-0.0013410339697061,0.0013534906163522,3.4757854624133e-07,-1.7988866744416e-07,3.3741597797454e-07,-1.076779848753e-07,-0.0014960817673375,0.0014962794395756,-0.0015616865895164,0.0015621910688076,-0.0015618062187825,0.0015620479380135,-0.0015618186835774,0.0015620136021666,-0.0015620020438157,0.0015618455053103,-0.0013469741445637,0.0013475004513555,-0.0013474628387269,0.0013470576709077,-0.001493429011648,0.0014939935447015,-0.0014939864640956,0.0014933822873308,6.4786741294927e-06,-5.8695414863332e-06,-0.0010529053870656,0.0010535010255215,8.7429303062334e-08,5.2851923946438e-07,-0.0010976817261703,0.0011022325875395,-0.0010975057193306,0.0011023730614518,-0.0011017947960374,0.0010981134570363,-0.0011016482824597,0.0010982457822291,-0.0011574833650334,0.0011460939597908,-0.0011453161125197,0.0011582057717646,0.70342889515092,1473840,32975,0.0062143092523113,0.0062143430449418,0.0043803604259379,37.955325154245,0.00021884260123395,0.00021884260123395,0.00021884260123395,1927104.3156495,0.016951253453701
10972800,0.99013195984758,0.01658817496002,0.0058575355928032,0.0058575648286111,0.0048730745386061,-0.0014969168405783,0.0014970919248929,-6.0727210776019e-06,6.2365406073835e-06,-1.6614886884796e-07,3.776159387946e-07,-0.0015650000218413,0.0015609100808666,-0.0015609276457766,0.0015649741208845,-0.0015648650165271,0.001561069851046,-0.0015607298436628,0.0015651975028945,-0.001353599530714,0.0013417847407762,-0.0013414483950605,0.0013539107334663,3.4655724477356e-07,-1.9031126478835e-07,3.3598577716955e-07,-1.1771230773884e-07,-0.001496919484004,0.0014971057427444,-0.0015627270551724,0.001563226151412,-0.0015628494995352,0.0015630801559452,-0.0015628622716884,0.0015630455500455,-0.0015630484761258,0.0015628745605545,-0.0013473946099156,0.0013479148127841,-0.0013478916616837,0.0013474634655631,-0.0014942408367084,0.0014948002911106,-0.0014948075540866,0.0014941798836278,6.4762798118051e-06,-5.8639260637387e-06,-0.0010526323795406,0.0010532312630071,8.4802113615404e-08,5.3447121984399e-07,-0.0010974915072507,0.0011020400843317,-0.0010973126814717,0.0011021834412325,-0.0011016018993332,0.0010979235924116,-0.0011014525558249,0.0010980588065864,-0.0011574760394664,0.0011461006427332,-0.0011453168459908,0.001158204738162,0.70177134518993,1473840,32975,0.0062177526981675,0.0062177864835456,0.0043792424909364,37.931454913859,0.00021865163931087,0.00021865163931087,0.00021865163931087,1923866.0753048,0.016957120616006
11059200,0.99070736154457,0.01659686013574,0.005860669495731,0.005860698731279,0.0048754919087304,-0.0014976956525457,0.0014978589545814,-6.0762361546382e-06,6.2281894978653e-06,-1.6686272544092e-07,3.6654165210312e-07,-0.0015659782951802,0.0015618816853204,-0.0015619075233848,0.0015659441054479,-0.0015658466986166,0.0015620379716506,-0.0015617131606044,0.001566164004147,-0.0013539756841805,0.0013421502644011,-0.0013418292722188,0.0013542715330222,3.4606298930155e-07,-1.8046577309624e-07,3.4023732239861e-07,-1.1268691646198e-07,-0.0014976877660662,0.0014978832959299,-0.0015636992164348,0.0015642038207694,-0.0015638214082208,0.0015640580877102,-0.001563830981758,0.0015640266866672,-0.0015640169350692,0.0015638559610243,-0.0013477594050331,0.0013482915515189,-0.0013482557659954,0.0013478409722339,-0.0014949887180448,0.0014955476850691,-0.0014955452873728,0.0014949373532862,6.4738087001721e-06,-5.8615976745148e-06,-0.0010523556100605,0.0010529543244285,8.5101503612892e-08,5.3399456156305e-07,-0.0010972863760651,0.0011018334257888,-0.0010971078164721,0.0011019765171917,-0.001101395189,0.001097718574869,-0.0011012460901862,0.0010978535265341,-0.0011574576896178,0.0011460865921481,-0.0011453030808915,0.0011581858235381,0.70006422524319,1473840,32975,0.0062209515610333,0.0062209853334499,0.0043781014630114,37.907584759457,0.00021846067807565,0.00021846067807565,0.00021846067807565,1920853.1325254,0.016962466819204
11145600,0.99124872674864,0.016605014223091,0.0058636115683118,0.0058636408036068,0.0048777618511722,-0.0014984176460669,0.0014985718593785,-6.0797805712238e-06,6.2226418157718e-06,-1.6633977231049e-07,3.5686179193924e-07,-0.0015668965800446,0.0015627949521712,-0.0015628264690418,0.0015668567169843,-0.0015667683029847,0.0015629478272587,-0.0015626354570875,0.0015670731832515,-0.0013543083827219,0.001342472500623,-0.001342163924396,0.0013545917216403,3.4253257488007e-07,-1.738281892532e-07,3.4133243168816e-07,-1.1074097710659e-07,-0.0014984036977766,0.0014986022755919,-0.0015646152881349,0.0015651192706249,-0.0015647372255842,0.0015649738070326,-0.0015647437019458,0.0015649455330703,-0.0015649293692005,0.0015647751153501,-0.0013480840297275,0.001348621714659,-0.0013485795356999,0.0013481720751721,-0.0014956817023203,0.0014962339603522,-0.0014962283226286,0.0014956337817906,6.4726499064033e-06,-5.8608032092478e-06,-0.0010520745907824,0.0010526729103794,8.5317810330635e-08,5.3336996409989e-07,-0.0010970679704243,0.0011016142327326,-0.0010968896997728,0.0011017570763427,-0.0011011761518325,0.0010975000658163,-0.0011010273346602,0.0010976347414758,-0.0011574266459803,0.0011460568784316,-0.0011452740033759,0.0011581541758581,0.69856588795139,1473840,32975,0.0062239208247268,0.0062239546243649,0.0043769419500436,37.883714614924,0.00021826971691939,0.00021826971691939,0.00021826971691939,1918053.9827271,0.016967327264021
11232000,0.99175717902765,0.016612690791372,0.0058663802038989,0.0058664094389948,0.0048799011484778,-0.0014990530771369,0.0014991859843091,-6.0894334268245e-06,6.2107826496527e-06,-1.7487786428385e-07,3.4415507946069e-07,-0.0015677090801611,0.0015635884043369,-0.0015636397617098,0.0015676494731281,-0.0015675821079163,0.0015637399106063,-0.0015634502317064,0.0015678645037656,-0.0013545834891079,0.0013427269351614,-0.001342441712834,0.0013548442950031,3.4150276429664e-07,-1.708375919441e-07,3.3933596897272e-07,-1.0680128838977e-07,-0.0014990275140825,0.0014992279877544,-0.0015654191144094,0.0015659215226851,-0.0015655390876056,0.0015657780469749,-0.0015655460871501,0.0015657491960076,-0.0015657298250906,0.0015655808333718,-0.0013483501040506,0.0013488851324058,-0.0013488398481904,0.0013484412584864,-0.0014962909268116,0.0014968432561616,-0.001496833599987,0.0014962468714675,6.4703515241617e-06,-5.8609594280782e-06,-0.0010517432201147,0.0010523391623955,8.7049229655846e-08,5.2917838733986e-07,-0.0010968004675609,0.0011013456105036,-0.0010966240645693,0.0011014864620185,-0.0011009079813521,0.0010972322548605,-0.0011007610064096,0.0010973648754856,-0.001157335732907,0.0011459634037504,-0.0011451847989342,0.0011580583059354,0.70017946962452,1473840,32975,0.0062265063899723,0.0062265401332475,0.0043755692547482,37.825991425099,0.00021780793140079,0.00021780793140079,0.00021780793140079,1914881.7734083,0.016971190422825
11318400,0.99223400997619,0.01661989343656,0.0058689772558462,0.005869006490791,0.0048819096899233,-0.0014998727967483,0.0015000226187224,-6.0747401831228e-06,6.2131416495735e-06,-1.7023386948852e-07,3.5644016623659e-07,-0.0015685086775291,0.0015644063957874,-0.0015644434449265,0.001568463305482,-0.0015683792892209,0.0015645604047237,-0.0015642512986513,0.0015686809398842,-0.0013552227447377,0.0013433977157395,-0.0013430925651372,0.0013555028912546,3.4372374493528e-07,-1.7616166581921e-07,3.409589228191e-07,-1.1145528220166e-07,-0.0014998572018899,0.0015000546777211,-0.0015662270098041,0.0015667311281071,-0.0015663490238637,0.0015665855677614,-0.0015663565205251,0.0015665562396116,-0.001566542295882,0.0015663856853639,-0.001349004852501,0.0013495407336215,-0.0013495006711303,0.0013490906056101,-0.0014972705879313,0.0014978251595258,-0.0014978207044646,0.001497221325471,6.4646666170888e-06,-5.8543290274799e-06,-0.0010514172626928,0.001052014134471,8.4450421357302e-08,5.3283069618039e-07,-0.0010966753935148,0.0011012153113746,-0.001096497038332,0.0011013582730315,-0.0011007787879473,0.0010971059883153,-0.0011006298729583,0.0010972407620738,-0.0011572487078124,0.001145891639175,-0.0011451101107984,0.001157974726715,0.70048022717998,1473840,32975,0.0062299332169927,0.0062299670094207,0.004374228816882,37.737311670144,0.00021709849336115,0.00021709849336115,0.00021709849336115,1906385.6491476,0.016976798233762
11404800,0.9926812501811,0.016626651029221,0.0058714133552645,0.0058714425900193,0.0048837950839372,-0.0015004998329285,0.0015006618277041,-6.0651422030973e-06,6.2157909828778e-06,-1.6623402349634e-07,3.6455818436705e-07,-0.0015691975848241,0.0015651083869217,-0.0015651346710916,0.0015691629867966,-0.0015690668273851,0.0015652637862545,-0.0015649411506427,0.0015693820059602,-0.0013556086153414,0.0013438040206454,-0.0013434852205125,0.0013559023660187,3.4497701068677e-07,-1.7894291793278e-07,3.4330824719564e-07,-1.1533586826388e-07,-0.0015004910772225,0.0015006870383743,-0.001566921486313,0.0015674275425663,-0.0015670455536968,0.0015672799029981,-0.001567052391366,0.0015672512946165,-0.0015672402180702,0.0015670786649841,-0.0013493993340638,0.0013499383986051,-0.001349901209261,0.0013494821634358,-0.0014979773221745,0.0014985322304183,-0.0014985314139505,0.001497924544068,6.462417046731e-06,-5.8496538519625e-06,-0.0010510530856936,0.001051652374305,8.2570947750578e-08,5.3716412660883e-07,-0.0010964429761345,0.0011009809224155,-0.0010962625515505,0.0011011259522208,-0.0011005440187658,0.0010968738614874,-0.0011003930527672,0.0010970107150336,-0.0011571059955248,0.0011457602303509,-0.0011449742921027,0.001157836620564,0.70057436969498,1473840,32975,0.0062325528947853,0.0062325866685501,0.0043727310531587,37.646709353575,0.0002163736748286,0.0002163736748286,0.0002163736748286,1900503.3367904,0.016980603969951
11491200,0.99310083772879,0.016632992673097,0.0058736990224511,0.0058737282570137,0.0048855653936325,-0.0015010580425397,0.0015011988644481,-6.073853523783e-06,6.2027135773349e-06,-1.7518934288424e-07,3.5315796319655e-07,-0.0015698065308542,0.0015656986282534,-0.0015657444124675,0.0015697501989197,-0.0015696768476575,0.0015658512160146,-0.0015655491930378,0.0015699678792623,-0.0013560129019337,0.0013441887016366,-0.0013438928543525,0.0013562834420642,3.648454789755e-07,-1.5623718143265e-07,3.6438767795221e-07,-9.5237578516526e-08,-0.0015010178309483,0.0015012562815512,-0.0015674987335751,0.0015680482829756,-0.0015676246033644,0.0015678998857938,-0.0015676267068516,0.0015678718774759,-0.0015678175495023,0.001567696522915,-0.0013497705171352,0.001350355777558,-0.0013502784680923,0.0013498966127665,-0.0014985485433176,0.0014991453445087,-0.0014991021510625,0.0014985383186092,6.4488186945153e-06,-5.8578329071639e-06,-0.0010507174243964,0.0010512972490921,7.1208759351634e-08,5.2668937550611e-07,-0.0010962475087931,0.0011007658083019,-0.0010960677543269,0.00110091044154,-0.0011003484342142,0.0010966611056904,-0.0011001956593857,0.0010967989747159,-0.0011569142410952,0.0011455573475788,-0.0011447910228947,0.0011576231430978,0.70071349761284,1473840,32975,0.0062348184815184,0.0062348538074427,0.0043713051634962,37.555926067879,0.00021564740854303,0.00021564740854303,0.00021564740854303,1894723.288493,0.016983764109703
11577600,0.99349458198763,0.016638945760912,0.0058758441492109,0.0058758733839382,0.0048872282277628,-0.001501582182181,0.0015017276473563,-6.0646569502262e-06,6.1973422675822e-06,-1.7110143281841e-07,3.5522669393587e-07,-0.0015703880046666,0.0015662904827544,-0.0015663316745183,0.0015703374759167,-0.0015702607381259,0.0015664438019884,-0.0015661383584904,0.0015705547820521,-0.0013563303772698,0.0013445228306488,-0.0013442237573432,0.0013566026616967,3.4848346138326e-07,-1.7110211912715e-07,3.5015148176435e-07,-1.1043736050891e-07,-0.0015015587866677,0.0015017679502045,-0.0015681007344144,0.001568622070595,-0.0015682262909468,0.0015684736943899,-0.0015682275785351,0.0015684448142426,-0.001568418372488,0.0015682696503978,-0.0013501107599156,0.0013506672314852,-0.0013506174729166,0.0013502051761564,-0.0014991484290055,0.0014997111999796,-0.0014996978085907,0.0014991043968284,6.4503098413952e-06,-5.8421745006055e-06,-0.0010503348176433,0.0010509315661374,8.0313868329158e-08,5.3686422456787e-07,-0.0010959888125568,0.0011005179469784,-0.0010958094866795,0.0011006618934641,-0.0011000855342716,0.0010964181170366,-0.0010999320499263,0.0010965567548717,-0.001156712052511,0.0011453863261199,-0.0011446004832802,0.0011574364151859,0.70089482266266,1473840,32975,0.0062369966350446,0.0062370313439233,0.0043697600926916,37.46512452659,0.00021492099621272,0.00021492099621272,0.00021492099621272,1889483.5771175,0.016986623005469
11664000,0.99386416893584,0.016644535841606,0.0058778580449701,0.0058778872793512,0.0048887905172847,-0.0015020825675421,0.0015022431360659,-6.0541673737201e-06,6.2033778083266e-06,-1.6280388297398e-07,3.5964678372254e-07,-0.0015709751170805,0.0015668950838208,-0.0015669200165111,0.0015709418795659,-0.0015708470836643,0.0015670476813067,-0.0015667292153782,0.0015711580959968,-0.0013565053482179,0.0013447194153114,-0.0013444048787698,0.0013567948540668,3.4266101454652e-07,-1.7291557723337e-07,3.4912750635083e-07,-1.1748657010755e-07,-0.0015020712604211,0.0015022708998104,-0.0015687018127864,0.0015692114127825,-0.0015688284914985,0.0015690611312107,-0.0015688299653767,0.0015690379516431,-0.0015690204286968,0.0015688626391987,-0.0013502982322388,0.0013508516867081,-0.0013508080318703,0.0013503875239465,-0.0014997407147329,0.0015002885160859,-0.0015002867067964,0.0014996889773687,6.4516270430431e-06,-5.8371223935509e-06,-0.0010499305935885,0.0010505316368755,7.9479815252613e-08,5.4202926281573e-07,-0.0010956580676607,0.0011001873788452,-0.0010954750560906,0.0011003350464324,-0.001099751360853,0.0010960880745907,-0.0010995977350725,0.0010962276105856,-0.0011565893136018,0.0011452708976928,-0.0011444805024682,0.0011573242962653,0.7011159273682,1473840,32975,0.0062390984468397,0.0062391322252145,0.0043680995897956,37.374321095883,0.00021419456876706,0.00021419456876706,0.00021419456876706,1884890.7893357,0.01698920891585
11750400,0.99421116950878,0.016649786677694,0.0058797493662396,0.0058797786004627,0.0048902587109921,-0.0015025141435892,0.0015026940060538,-6.0438887339199e-06,6.2114768283108e-06,-1.4919199445613e-07,3.6650186745995e-07,-0.001571443269538,0.0015673864167617,-0.0015673896226672,0.0015714311133184,-0.0015713205731096,0.0015675367155668,-0.0015672000485862,0.0015716456782066,-0.0013568089174845,0.001345041269885,-0.0013447082218919,0.0013571136535709,3.294406661461e-07,-1.7970293745232e-07,3.4359408064557e-07,-1.3177622888404e-07,-0.0015025218792954,0.0015027021336562,-0.0015691898832302,0.0015696822858311,-0.0015693209985994,0.0015695285068844,-0.0015693141857464,0.0015695100065714,-0.00156951004796,0.0015693311183456,-0.001350612814954,0.0013511567814928,-0.0013511330638454,0.0013506845496189,-0.0015002427167947,0.0015007604994778,-0.0015007825853481,0.0015001670418223,6.4508412946999e-06,-5.8348134662501e-06,-0.0010495757941458,0.0010501795463646,7.6255556030695e-08,5.4722053621907e-07,-0.0010954307024103,0.0010999585385947,-0.0010952448699139,0.0011001087470307,-0.0010995243075928,0.0010958623587989,-0.0010993657449351,0.0010960033666724,-0.0011563622760394,0.0011450548494623,-0.001144259267076,0.0011571026291884,0.70137469878167,1473840,32975,0.0062409236353197,0.006240956185546,0.0043666396103066,37.283517522972,0.00021346814018378,0.00021346814018378,0.00021346814018378,1879499.4013884,0.016991435767405
11836800,0.99453704766907,0.016654723818459,0.005881527202001,0.00588155643508,0.0048916401813785,-0.0015029631516428,0.0015031251364629,-6.0507332448635e-06,6.2013747395857e-06,-1.6126550555727e-07,3.5949793550346e-07,-0.0015719629991933,0.0015678867627776,-0.0015679097379596,0.0015719317515159,-0.0015718355135494,0.0015680387970816,-0.0015677194659738,0.0015721473914156,-0.0013569893004098,0.0013452095428573,-0.0013448941232387,0.0013572797002142,3.4193213822516e-07,-1.7194207197358e-07,3.5571733988688e-07,-1.2388773106172e-07,-0.0015029524391037,0.001503152303226,-0.00156968962221,0.00157020319336,-0.0015698205567862,0.0015700485777751,-0.0015698172383528,0.0015700303086402,-0.0015700119456102,0.0015698506520996,-0.0013507785879366,0.0013513455353128,-0.0013513010377815,0.0013508685457935,-0.0015007423308934,0.0015012843903045,-0.0015012866614077,0.0015006865283094,6.4505281944957e-06,-5.8328434839766e-06,-0.0010491736411575,0.0010497778704067,7.4634966623942e-08,5.5014109945681e-07,-0.0010951094693385,0.0010996358317729,-0.001094922160497,0.0010997878106646,-0.0010992009620539,0.0010955383260007,-0.0010990430251328,0.0010956821684206,-0.0011562001919625,0.0011448945347084,-0.0011440966836998,0.0011569427064327,0.70215792845387,1473840,32975,0.0062427444350276,0.0062427782087317,0.0043649791404766,37.192713909305,0.00021274171127444,0.00021274171127444,0.00021274171127444,1875014.2361915,0.016993452300468
11923200,0.99484316794044,0.016659375545268,0.0058832016289929,0.0058832308619361,0.0048929430543395,-0.0015034059647511,0.0015035650588829,-6.0511300845919e-06,6.1988015974769e-06,-1.6408597628594e-07,3.5953538213709e-07,-0.0015724247995807,0.0015683454367827,-0.0015683722737296,0.0015723896666437,-0.0015722963333593,0.0015684984460371,-0.0015681810242253,0.0015726063059216,-0.0013572777576864,0.0013454982453702,-0.0013451848238934,0.0013575662598996,3.4220925785031e-07,-1.7453580188229e-07,3.5913705563821e-07,-1.2963117293434e-07,-0.0015033949924716,0.0015035925703235,-0.0015701490415814,0.0015706642371648,-0.0015702828415042,0.0015705066635839,-0.001570277462139,0.0015704905525192,-0.0015704753157819,0.0015703076973456,-0.0013510642804365,0.0013516369111856,-0.001351596198985,0.0013511509016928,-0.0015012676217946,0.0015018073757627,-0.0015018150986986,0.0015012064294136,6.4507464826775e-06,-5.8305689572366e-06,-0.0010488037858964,0.0010494104913557,7.1295434086486e-08,5.5598791116725e-07,-0.0010948626251635,0.0010993877891437,-0.0010946722836946,0.001099542765075,-0.00109895355097,0.0010952908965203,-0.0010987923458751,0.0010954378543214,-0.0011560026022574,0.001144704589673,-0.0011439011014624,0.0011567506394102,0.70419385564555,1473840,32975,0.0062445703198584,0.0062446042695578,0.0043634566797252,37.101910366773,0.00021201528293419,0.00021201528293419,0.00021201528293419,1869462.766209,0.016995618543969
12009600,0.99513114323654,0.01666376546764,0.0058847811943873,0.0058848104272436,0.004894173846009,-0.001503971257843,0.0015041314356936,-6.0473716536649e-06,6.1959257255282e-06,-1.6485068391291e-07,3.6178588937349e-07,-0.0015729397563935,0.0015688627770863,-0.0015688896647541,0.0015729045743793,-0.0015728105723373,0.0015690166531902,-0.0015686971628501,0.0015731224810704,-0.0013577493785107,0.0013459771562395,-0.0013456621389682,0.0013580395949982,3.4216789804814e-07,-1.7762745729317e-07,3.6399311374096e-07,-1.3756296904002e-07,-0.0015039623047752,0.0015041567637349,-0.0015706641484377,0.0015711813795225,-0.0015708020995004,0.0015710196292823,-0.0015707934235572,0.0015710066799024,-0.0015709955938601,0.001570819461104,-0.0013515351346491,0.0013521161272245,-0.0013520795211157,0.001351617541656,-0.0015019776612292,0.0015025134084878,-0.0015025280324118,0.0015019084392848,6.4487788632814e-06,-5.8259027363704e-06,-0.0010484963537402,0.0010491059295091,6.637946338037e-08,5.6382614733269e-07,-0.0010947222213476,0.0010992437573413,-0.0010945275599301,0.0010994031532781,-0.0010988108854835,0.0010951492973777,-0.0010986456092262,0.0010953004052629,-0.0011558707281384,0.001144585695628,-0.0011437747853372,0.0011566254261193,0.7063574034217,1473840,32975,0.0062469112507209,0.0062469448611329,0.0043621951144466,37.033439303648,0.00021146751442918,0.00021146751442918,0.00021146751442918,1862280.872639,0.016999097451252
12096000,0.99540237135053,0.016667914074446,0.0058862733551955,0.0058863025878077,0.0048953381314433,-0.0015045450501326,0.0015047063621844,-6.0421047373768e-06,6.1917637430373e-06,-1.6513138082702e-07,3.6321452053975e-07,-0.0015734611651675,0.0015693878017987,-0.0015694142753258,0.001573426438796,-0.0015733312157314,0.0015695422590573,-0.0015692209240946,0.001573644997152,-0.0013582335807272,0.0013464721387964,-0.0013461556184593,0.0013585257563748,3.2419469896549e-07,-1.9753846778632e-07,3.4994254256148e-07,-1.6202328631883e-07,-0.0015045556973747,0.0015047120359852,-0.0015712041863217,0.0015716875205002,-0.0015713454730466,0.0015715223330494,-0.0015713341275242,0.0015715121516296,-0.0015715396942237,0.0015713214483955,-0.0013520389831727,0.0013525911019775,-0.0013525937420905,0.0013520823883254,-0.0015027112575493,0.0015032074960463,-0.0015032636846018,0.0015026007866914,6.442226689326e-06,-5.8230282308661e-06,-0.0010482211110836,0.0010488270838482,5.9437607752941e-08,5.6722357888485e-07,-0.0010946135998034,0.0010991249652153,-0.0010944156224238,0.0010992879711841,-0.0010986991006447,0.0010950336792329,-0.0010985305196332,0.001095188313181,-0.0011557636241222,0.0011444873515359,-0.0011436768675775,0.0011565180219419,0.70864325249226,1473840,32975,0.0062492874877704,0.0062493209870996,0.0043610535309034,36.983789380565,0.00021107031504452,0.00021107031504452,0.00021107031504452,1855311.1142552,0.017002770440752
12182400,0.99565787615506,0.016671836046571,0.0058876834570895,0.0058877126893673,0.0048964399001145,-0.001505090274226,0.0015052602824378,-6.0366189965835e-06,6.1946050746342e-06,-1.5919351661193e-07,3.664019996262e-07,-0.0015739526211013,0.0015698900664129,-0.0015699068685063,0.0015739276439958,-0.0015738241485484,0.0015700434865979,-0.0015697144638966,0.0015741454222161,-0.0013587031876989,0.0013469509071557,-0.0013466273637129,0.0013590028764156,3.3933787579664e-07,-1.7937520604994e-07,3.7099039560598e-07,-1.4891585020922e-07,-0.0015050883627367,0.0015052786016593,-0.0015716836626601,0.0015722025555045,-0.0015718273952574,0.0015720347139892,-0.0015718122757139,0.0015720280291306,-0.0015720203305392,0.0015718345182809,-0.0013524930716365,0.0013530881033297,-0.0013530557510193,0.0013525716778903,-0.0015033829703361,0.0015039071312168,-0.0015039318847268,0.0015033021301938,6.4305392530412e-06,-5.8321385802317e-06,-0.0010479533453124,0.0010485389748422,4.5297837577038e-08,5.60902024371e-07,-0.0010945098923224,0.0010989976578469,-0.0010943089416123,0.0010991631829373,-0.0010985945391449,0.0010949075596025,-0.0010984232593974,0.001095064538985,-0.0011556578192764,0.0011443656191168,-0.0011435725058045,0.0011563936154116,0.71105277482492,1473840,32975,0.0062515611014984,0.0062515947790053,0.0043599080553704,36.935309384277,0.00021068247507421,0.00021068247507421,0.00021068247507421,1848495.8020444,0.017006231047151
12268800,0.99589860196282,0.01667554316585,0.0058890158421577,0.005889045074253,0.0048974822494391,-0.0015056190497819,0.0015057754699132,-6.0431499013876e-06,6.1879207886269e-06,-1.6351282560359e-07,3.5657959491816e-07,-0.001574427164488,0.0015703527802996,-0.0015703811880744,0.0015743906221903,-0.0015743001884568,0.0015705044849184,-0.0015701909994661,0.0015746062463211,-0.0013591555753887,0.0013473894239985,-0.0013470805175272,0.0013594399373188,3.436607445786e-07,-1.6955410855763e-07,3.8192457769499e-07,-1.4578401537977e-07,-0.0015056033916171,0.0015058075043941,-0.0015721448625873,0.0015726781561934,-0.0015722913342511,0.0015725076787619,-0.0015722719519508,0.0015725056802978,-0.0015724825822464,0.0015723097588558,-0.0013529262533764,0.0013535450511131,-0.0013534964315366,0.0013530207725708,-0.0015040351570911,0.0015045652331838,-0.001504579104315,0.001503966748264,6.4406838270971e-06,-5.8218193296957e-06,-0.0010476660429968,0.0010482716015923,5.1377603397542e-08,5.7488778734348e-07,-0.0010943846142722,0.0010988894445907,-0.0010941812496617,0.0010990574289545,-0.0010984692404344,0.001094798999136,-0.0010982952453318,0.0010949587949094,-0.0011555324579396,0.00114426407401,-0.001143448465186,0.0011562916892808,0.71326270386268,1473840,32975,0.0062537205071867,0.0062537541198486,0.0043587649318251,36.886939370803,0.00021029551496643,0.00021029551496643,0.00021029551496643,1841803.7270841,0.01700946151193
12355200,0.99612543347261,0.016679026620854,0.0058902679925945,0.0058902972244821,0.0048984614037774,-0.0015060874898383,0.0015062405516253,-6.0403094694636e-06,6.1809812735746e-06,-1.6466091557238e-07,3.5481893418491e-07,-0.0015748551781182,0.0015707814544022,-0.0015708126832252,0.0015748154857007,-0.0015747290384934,0.0015709328422914,-0.0015706224835072,0.0015750310576847,-0.0013595503801735,0.0013477889070542,-0.0013474848770818,0.0013598306437138,3.4866292971038e-07,-1.6383054388281e-07,3.9097739879723e-07,-1.4474155362139e-07,-0.0015060648721678,0.0015062797436779,-0.0015725668033347,0.0015731134622859,-0.0015727154636232,0.00157294020068,-0.0015726929634573,0.0015729411357341,-0.0015729066008293,0.0015727419665733,-0.0013533146243758,0.0013539520250477,-0.0013538932207904,0.0013534186552142,-0.0015046105998023,0.0015051483375566,-0.0015051547244196,0.0015045501710001,6.431852199373e-06,-5.820763782684e-06,-0.0010473813934919,0.0010479801450007,4.419475620924e-08,5.7559685147947e-07,-0.0010942506884181,0.0010987430235015,-0.0010940448274948,0.0010989129627097,-0.001098332374739,0.0010946563745312,-0.0010981557419643,0.0010948192079684,-0.0011553814181793,0.0011441182134044,-0.0011433061261252,0.0011561334233505,0.71122383975244,1473840,32975,0.0062556513282914,0.0062556853515797,0.0043575767746066,36.838580269296,0.00020990864215436,0.00020990864215436,0.00020990864215436,1835640.760052,0.017012181663518
12441600,0.99633920081606,0.016682261268252,0.0058914318774812,0.0058914611092427,0.0048993682815282,-0.0015061787927078,0.0015063358242802,-6.0357821212854e-06,6.181417131635e-06,-1.6210542267017e-07,3.5538936882083e-07,-0.001575122229686,0.0015710538406966,-0.0015710807198541,0.0015750872093932,-0.0015749958644426,0.0015712047677038,-0.0015708914782394,0.0015753017549613,-0.0013593548542167,0.0013476030533807,-0.0013472937628387,0.0013596391799487,3.4081718226874e-07,-1.6983296828219e-07,3.7977108490139e-07,-1.4703073038169e-07,-0.0015061651307204,0.0015063659463311,-0.0015728451624883,0.0015733741708465,-0.0015729915444869,0.0015732038185699,-0.0015729716386202,0.001573202393055,-0.0015731818375821,0.001573006969355,-0.0013531341459939,0.0013537493331181,-0.0013537026305761,0.001353225868922,-0.0015046345278709,0.0015051587691874,-0.0015051757801834,0.0015045640489097,6.4380316618769e-06,-5.8106115523103e-06,-0.0010469764659163,0.0010475905025638,5.6123654765989e-08,5.787608288186e-07,-0.0010938395433957,0.0010983484173138,-0.001093636590996,0.0010985161569425,-0.0010979195100213,0.0010942625231487,-0.0010977459444002,0.0010944220567512,-0.0011551081072017,0.0011438619287043,-0.0011430384785603,0.0011558760697828,0.70080292378896,1473840,32975,0.0062560369681702,0.0062560707556267,0.0043559312903568,36.79022212432,0.00020952177699456,0.00020952177699456,0.00020952177699456,1835418.2298857,0.017011292172249
12528000,0.99654068309575,0.016685322784367,0.0058925329242349,0.0058925621559121,0.0049002277042197,-0.0015055662048716,0.0015057152308073,-6.0357283145953e-06,6.1735570051699e-06,-1.5992171581747e-07,3.4480056888773e-07,-0.0015750995933667,0.001571029862516,-0.0015710601565391,0.0015750608317883,-0.0015749765295798,0.0015711765742496,-0.0015708752330059,0.0015752697270718,-0.0013581265341544,0.0013463724161734,-0.0013460748563942,0.0013583980314685,3.358728880044e-07,-1.6201285902334e-07,3.6926667831269e-07,-1.3306985490328e-07,-0.0015055468256781,0.0015057508495514,-0.0015728254078233,0.0015733463206525,-0.0015729648813064,0.0015731832967717,-0.0015729481214182,0.0015731784685944,-0.00157315065937,0.0015729913252491,-0.001351910976495,0.0013525097620498,-0.0013524558616731,0.0013520117221388,-0.0015035657256858,0.0015040859315618,-0.0015040930350031,0.0015035063368821,6.4382638721151e-06,-5.8026648098729e-06,-0.0010464397369182,0.0010470611751609,7.1805900186274e-08,5.7001249657727e-07,-0.0010929716435761,0.0010974930655334,-0.0010927772402871,0.0010976528079402,-0.0010970492141601,0.0010934096894886,-0.0010968827743765,0.001093561759605,-0.0011546355381249,0.0011433978046295,-0.0011425746339391,0.0011554029564305,0.70372109823243,1473840,32975,0.0062534857718189,0.006253519105561,0.0043537140701037,36.741864367581,0.00020913491494065,0.00020913491494065,0.00020913491494065,1846763.2367132,0.017003845509908
12614400,0.99673061158957,0.016688179182514,0.0058935607686092,0.0058935900001268,0.0049010284137784,-0.0015061259178809,0.0015062516438664,-6.0475904622846e-06,6.1608844261959e-06,-1.7314168400608e-07,3.3536690883901e-07,-0.0015755454521282,0.0015714525139026,-0.0015715068528565,0.001575481737332,-0.0015754226916681,0.001571599548521,-0.001571318831241,0.0015756937002293,-0.0013586692494524,0.0013468895779138,-0.0013466143687918,0.0013589176099158,3.3807723048817e-07,-1.6362963182933e-07,3.7609270439663e-07,-1.4175985072484e-07,-0.0015060952145095,0.0015062986919461,-0.0015732575193764,0.0015737826310832,-0.0015734002706071,0.0015736157732677,-0.0015733799684945,0.0015736146384466,-0.0015735879905186,0.001573420811208,-0.0013524361915885,0.0013530470472236,-0.0013529989282698,0.0013525327198877,-0.0015043045986907,0.0015048281554346,-0.001504840695651,0.0015042418203925,6.4388417043314e-06,-5.8006746139931e-06,-0.0010461971461672,0.0010468220469626,6.5392810709402e-08,5.7918225082969e-07,-0.0010928937458599,0.0010974132398132,-0.0010926937119517,0.0010975784036708,-0.0010969709976726,0.0010933311697939,-0.0010968004352868,0.0010934887978629,-0.001154560827968,0.0011433331209237,-0.0011425002762686,0.0011553353550317,0.69674658281104,1473840,32975,0.0062557531496485,0.0062557866980635,0.0043527228175521,36.693506475822,0.00020874805180657,0.00020874805180657,0.00020874805180657,1838696.3121574,0.017007450463291
12700800,0.99690967282869,0.016690875777749,0.0058945308900583,0.0058945601213945,0.0049017847662966,-0.0015057497621797,0.0015059007049082,-6.0305749608785e-06,6.1702110744525e-06,-1.5760206439288e-07,3.4460918599487e-07,-0.0015755878889032,0.0015715238954318,-0.0015715517562225,0.0015755518196305,-0.0015754664754736,0.0015716697840676,-0.0015713675871113,0.0015757612463626,-0.0013577908863768,0.0013460443402455,-0.0013457460393838,0.001358064083857,3.3627584181206e-07,-1.5905100484318e-07,3.7026182090026e-07,-1.3132467447709e-07,-0.0015057299677082,0.0015059369602696,-0.0015733165688397,0.0015738383211952,-0.0015734546808647,0.0015736763705515,-0.0015734380610248,0.0015736716480337,-0.0015736399745646,0.0015734846866245,-0.0013515792158603,0.0013521809226114,-0.0013521232168918,0.0013516825523737,-0.0015036481025011,0.0015041716568941,-0.0015041743651225,0.0015035925263948,6.4283997963098e-06,-5.8038459501061e-06,-0.0010457553164277,0.0010463664011848,6.7142873267487e-08,5.6460848637148e-07,-0.001092228343189,0.0010967371799702,-0.0010920337796835,0.001096896530165,-0.0010963027994166,0.0010926567342371,-0.0010961375991422,0.0010928079416278,-0.0011542390860542,0.0011429979626299,-0.0011421859419012,0.001154995939046,0.6975750146546,1473840,32975,0.0062542489977916,0.0062542827882689,0.0043508586693523,36.645148691843,0.00020836118953474,0.00020836118953474,0.00020836118953474,1845757.7192597,0.017002494079242
12787200,0.99707760733165,0.016693404118531,0.0058954403204318,0.0058954695517041,0.0049024942463954,-0.0015058913282622,0.0015060457434505,-6.0286809436814e-06,6.1717271897981e-06,-1.5848471085937e-07,3.4905514739199e-07,-0.0015757067514474,0.0015716446072636,-0.001571670774739,0.0015756723920507,-0.00157558360253,0.0015717922082532,-0.0015714847979727,0.0015758835938424,-0.0013578572037905,0.0013461160514,-0.0013458126073177,0.0013581356098666,3.3752034649028e-07,-1.6314649935643e-07,3.695426717741e-07,-1.3353007352338e-07,-0.0015058747025224,0.0015060788225559,-0.0015734366153818,0.0015739578031477,-0.0015735752448503,0.0015737953514609,-0.0015735598652633,0.0015737893435525,-0.0015737622980546,0.0015736018466642,-0.0013516501224487,0.00135224859455,-0.0013521954431282,0.0013517484984067,-0.0015038822206268,0.0015044078864066,-0.0015044137146204,0.0015038231620849,6.4283696840274e-06,-5.8035215115991e-06,-0.0010453096669441,0.0010459210807799,6.6615736985021e-08,5.6555231006296e-07,-0.001091885222815,0.0010963937574151,-0.001091690187874,0.0010965536305238,-0.0010959595825867,0.001092313446558,-0.0010957938948572,0.0010924651419123,-0.0011539226494166,0.0011426825382004,-0.0011418696474616,0.0011546801944164,0.6974700489499,1473840,32975,0.0062548410938351,0.0062548748684295,0.0043490158268799,36.495977600431,0.00020716782080344,0.00020716782080344,0.00020716782080344,1840396.5569145,0.017001824703375
12873600,0.99723451776158,0.016695766603057,0.005896289975424,0.0058963192066311,0.0049031574210018,-0.0015057631189643,0.0015059196072072,-6.0257703951697e-06,6.1709086303084e-06,-1.5844690604514e-07,3.5107301063426e-07,-0.0015756089068203,0.0015715494405168,-0.0015715741752689,0.0015755759909944,-0.0015754851305193,0.0015716976936234,-0.0015713875808527,0.0015757878490155,-0.0013576130471322,0.0013458783287728,-0.001345572127937,0.0013578941975751,3.3981493619398e-07,-1.6281996756411e-07,3.6985999543096e-07,-1.3115399626106e-07,-0.0015057461994762,0.0015059529755848,-0.0015733388096027,0.0015738626171309,-0.0015734767749229,0.001573700866548,-0.0015734627080834,0.0015736934907826,-0.001573664489688,0.0015735067127657,-0.0013514091273488,0.0013520076255238,-0.0013519524810852,0.0013515096206913,-0.0015037908730267,0.0015043217533489,-0.0015043243457925,0.0015037351833245,6.4260038859395e-06,-5.802171102871e-06,-0.0010447147858587,0.001045325181032,6.7107939227698e-08,5.6400418053196e-07,-0.0010913437630075,0.0010958507397695,-0.0010911493883178,0.0010960099198973,-0.0010954168858506,0.0010917716448745,-0.0010952518649786,0.0010919226510746,-0.0011534379523292,0.0011421998300141,-0.0011413886368192,0.0011541938493414,0.69742426838435,1473840,32975,0.0062543136443861,0.0062543474099651,0.0043465496217794,36.268522755845,0.00020534818204675,0.00020534818204675,0.00020534818204675,1836426.0730058,0.016998243975791
12960000,0.99738118530075,0.016697975021314,0.00589708409018,0.0058971133213273,0.0049037776098066,-0.0015056119068971,0.0015057676685779,-6.0273237981622e-06,6.1717316706938e-06,-1.5887868145025e-07,3.5079056966412e-07,-0.0015754833067133,0.0015714222615361,-0.0015714477829767,0.0015754495951812,-0.0015753594647168,0.0015715705669419,-0.0015712611252089,0.0015756615129891,-0.001357357607301,0.0013456198528643,-0.001345314391396,0.0013576381213175,3.3859493684361e-07,-1.6421181629047e-07,3.6718070932784e-07,-1.3111410316025e-07,-0.0015055959325991,0.0015058000857623,-0.0015732141418608,0.0015737344858537,-0.0015733512183682,0.0015735736442239,-0.0015733380917863,0.0015735652997661,-0.0015735389768327,0.0015733794349351,-0.0013511548613722,0.0013517479823524,-0.0013516955123919,0.0013512526145771,-0.0015036801559404,0.0015042094885198,-0.001504213764109,0.0015036227419277,6.4267737312428e-06,-5.8038092689918e-06,-0.0010441122066783,0.0010447217485992,6.8037912800526e-08,5.6222133952577e-07,-0.0010907910352158,0.0010952988652761,-0.0010905975719819,0.0010954571534295,-0.0010948649595065,0.0010912189869004,-0.001094700856062,0.0010913690777306,-0.0011529448533249,0.0011417025509981,-0.0011408931576437,0.0011536989342447,0.6974314180835,1473840,32975,0.0062536851738084,0.0062537189269276,0.0043440516817218,36.036192319187,0.00020348953855349,0.00020348953855349,0.00020348953855349,1832459.607134,0.016994425493373
13046400,0.99751836588837,0.016700040871817,0.0058978268155691,0.0058978560466581,0.0049043580095902,-0.0015054456718022,0.0015056011659723,-6.0256469894341e-06,6.169779406677e-06,-1.5967919411167e-07,3.5133809118704e-07,-0.0015753387665729,0.0015712782041545,-0.0015713044461611,0.0015753043330034,-0.0015752144612359,0.0015714269666983,-0.0015711173442469,0.0015755166997874,-0.0013570900127829,0.0013453559970932,-0.0013450503772751,0.001357370689187,3.3875290806047e-07,-1.6539230025679e-07,3.6567057459439e-07,-1.3063633884211e-07,-0.0015054300765964,0.0015056332062802,-0.0015730704640227,0.0015735895646737,-0.0015732068781005,0.0015734293838091,-0.0015731948479602,0.0015734199351418,-0.0015733950742111,0.0015732347369443,-0.0013508908379795,0.0013514805274157,-0.0013514295600711,0.0013509871302958,-0.0015035537014107,0.0015040839732472,-0.001504088589083,0.0015034959115337,6.4244597821497e-06,-5.8025038074927e-06,-0.0010435092317875,0.0010441177659934,6.8520749875126e-08,5.6071782835806e-07,-0.0010902383898901,0.0010947446782354,-0.001090045594736,0.0010949023024226,-0.0010943111023197,0.0010906659928276,-0.0010941476620383,0.0010908154280205,-0.001152444010501,0.0011412036145294,-0.0011403958662794,0.0011531964051976,0.69748633301384,1473840,32975,0.0062529954629534,0.006253029220903,0.0043415516642427,35.803404054629,0.00020162723243703,0.00020162723243703,0.00020162723243703,1828525.8950528,0.016990480367397
13132800,0.99764675702532,0.016701974740715,0.0058985219735878,0.0058985512046219,0.0049049015625054,-0.0015052589478327,0.0015054199435496,-6.0201443070313e-06,6.1681886339022e-06,-1.5697587511447e-07,3.5531997583027e-07,-0.0015751623524684,0.0015711089447915,-0.0015711291208518,0.0015751318120954,-0.0015750361485572,0.0015712587862273,-0.0015709420983813,0.0015753434998492,-0.0013568386382962,0.0013451199310632,-0.0013448076237576,0.0013571246451991,3.3908560169041e-07,-1.6611318528824e-07,3.6557241107822e-07,-1.3334759269724e-07,-0.0015052463163079,0.0015054486520846,-0.0015728972484179,0.0015734166492218,-0.0015730335193581,0.0015732552689268,-0.0015730219044355,0.0015732471635174,-0.0015732204436353,0.0015730592288217,-0.0013506472064552,0.0013512360748133,-0.0013511863321173,0.001350738714434,-0.001503407320002,0.0015039377379736,-0.0015039381663878,0.001503344345701,6.4076050402673e-06,-5.8119483292079e-06,-0.0010429284446927,0.0010435115741874,5.3872312857998e-08,5.4934141892079e-07,-0.0010897164528682,0.0010941927028722,-0.001089524739705,0.0010943534246201,-0.0010937880861318,0.0010901191516439,-0.0010936228862322,0.0010902732758093,-0.0011519314684382,0.001140678260513,-0.0011398923032592,0.001152657172565,0.69758471218764,1473840,32975,0.0062522327838881,0.0062522657829531,0.0043390928089282,35.57056987689,0.00019976455901512,0.00019976455901512,0.00019976455901512,1824473.2223239,0.016986427924066
13219200,0.99776699987438,0.016703786338142,0.0058991730656565,0.0058992022965926,0.0049054109758925,-0.001505074107727,0.0015052306017919,-6.0194694794642e-06,6.1645854933051e-06,-1.6026370425267e-07,3.5294927488912e-07,-0.0015750022014265,0.0015709457036347,-0.0015709716874036,0.0015749680475579,-0.0015748771810648,0.001571095199083,-0.0015707838573629,0.001575181143359,-0.0013565295653418,0.0013448083631445,-0.0013445010544748,0.0013568119390556,3.3942430681509e-07,-1.6691774540398e-07,3.6780030803729e-07,-1.3362755783904e-07,-0.0015050594408561,0.0015052617206896,-0.0015727351773408,0.0015732558382836,-0.0015728732515926,0.0015730939522568,-0.001572860272292,0.0015730854827395,-0.0015730621651876,0.0015728985714302,-0.0013503350548512,0.0013509281784069,-0.0013508787943275,0.0013504297413658,-0.0015032636967601,0.0015037935774884,-0.0015038006875789,0.0015032032968239,6.4192837771749e-06,-5.7963229719354e-06,-0.001042302844206,0.0010429123976838,6.64831822683e-08,5.6380082154944e-07,-0.0010891334864985,0.001093635311078,-0.0010889390057298,0.0010937946522031,-0.0010932024172515,0.001089560409415,-0.001093037276191,0.0010897115623936,-0.0011514265139204,0.0011401999729843,-0.0011393894528183,0.0011521815965585,0.69772293880766,1473840,32975,0.0062514573857251,0.0062514911588064,0.0043365557925512,35.33773099604,0.00019790184796832,0.00019790184796832,0.00019790184796832,1820765.8711194,0.016982271698993
13305600,0.99787968393144,0.01670548248427,0.0058997826217954,0.0058998118526855,0.0049058880097893,-0.0015048708957406,0.0015050275100831,-6.0174691258333e-06,6.1626970013018e-06,-1.6048936385086e-07,3.5329316927645e-07,-0.0015748134460256,0.0015707581790478,-0.0015707842257762,0.0015747792304597,-0.0015746882215777,0.0015709078711259,-0.0015705962067685,0.001574992515963,-0.0013562396977225,0.0013445226547159,-0.0013442150681184,0.0013565224040059,3.3953472367359e-07,-1.6738081468889e-07,3.6673957028428e-07,-1.3289293975354e-07,-0.001504856453112,0.0015050583934232,-0.001572547389241,0.0015730673227383,-0.0015726848888431,0.0015729060324639,-0.0015726726770997,0.0015728967624277,-0.0015728740079325,0.001572710464949,-0.001350048462684,0.0013506393401983,-0.001350590439105,0.0013501426125592,-0.0015031002973823,0.0015036309466301,-0.0015036378575263,0.0015030401466361,6.4170547041352e-06,-5.7946761724685e-06,-0.0010417008450031,0.0010423098202181,6.7090501222946e-08,5.6261491643897e-07,-0.0010885806321537,0.0010930811867801,-0.0010883867477642,0.00109323993456,-0.0010926482749458,0.0010890075624517,-0.0010924837266433,0.0010891581188439,-0.0011509151028326,0.0011396911998252,-0.0011388818741527,0.0011516689863314,0.6970460435968,1473840,32975,0.0062506154092466,0.0062506491590682,0.0043340604098086,35.104891580088,0.0001960391326407,0.0001960391326407,0.0001960391326407,1816940.1013412,0.016978021602049
13392000,0.99798535151604,0.016707069174447,0.0059003528626492,0.0059003820934937,0.0049063342183037,-0.0015045821064488,0.0015047376810999,-6.016546744979e-06,6.1607555649298e-06,-1.6002191792772e-07,3.5175241751219e-07,-0.0015745834008295,0.0015705287222109,-0.0015705551870926,0.0015745488569699,-0.0015744588613366,0.0015706777725456,-0.0015703678046586,0.0015747614769009,-0.0013558277154458,0.001344111821019,-0.0013438059692716,0.0013561087978927,3.3865920876931e-07,-1.6625461452924e-07,3.6732817713321e-07,-1.3320850415592e-07,-0.001504567016708,0.0015047692065717,-0.0015723177519432,0.0015728375465001,-0.0015724555152742,0.0015726759565687,-0.0015724423784,0.001572667639307,-0.0015726439790944,0.0015724810544346,-0.0013496360876494,0.001350228797282,-0.0013501789908022,0.0013497311924713,-0.0015028112133702,0.0015033398038871,-0.0015033468421892,0.0015027510863185,6.4155043843767e-06,-5.7933718441102e-06,-0.001041081949503,0.0010416907329096,6.6540827454985e-08,5.6296262801944e-07,-0.0010879751284348,0.0010924742733771,-0.0010877809310713,0.0010926333011044,-0.0010920418059318,0.0010884016014703,-0.0010918769786666,0.0010885524258915,-0.0011503800812924,0.0011391590682323,-0.0011383497014006,0.0011511340582256,0.69533865348929,1473840,32975,0.0062494169638898,0.0062494507037275,0.0043314947584594,34.872052029155,0.00019417641623324,0.00019417641623324,0.00019417641623324,1814393.1238047,0.016972974837964
13478400,0.99808450186615,0.01670855416618,0.0059008865744294,0.0059009158052317,0.0049067517865187,-0.0015042001201325,0.0015043391392611,-6.0253306231798e-06,6.1528887847877e-06,-1.6634401365542e-07,3.4156148592128e-07,-0.0015743150273062,0.0015702448231053,-0.001570286418725,0.001574265174786,-0.0015741917231264,0.0015703925230886,-0.0015701003296412,0.0015744764851403,-0.0013552779382407,0.0013435432198723,-0.0013432551194558,0.0013555410156666,3.3611950286614e-07,-1.6506243205615e-07,3.6244489288967e-07,-1.2979995030263e-07,-0.0015041774413454,0.0015043782266812,-0.0015720442285787,0.0015725586174188,-0.0015721793284752,0.0015723997951326,-0.0015721675545043,0.0015723900039304,-0.0015723664556745,0.0015722061549817,-0.0013490810339801,0.0013496653631398,-0.0013496157576453,0.0013491759983502,-0.0015023718903573,0.0015028982319899,-0.0015029038399316,0.0015023131224928,6.4162053572021e-06,-5.7936057579075e-06,-0.0010404448288616,0.0010410539598712,7.0825492155478e-08,5.5898338307817e-07,-0.0010873044617737,0.0010918069374529,-0.0010871130642493,0.0010919633019509,-0.0010913715131779,0.0010877340593169,-0.0010912094458577,0.0010878821946354,-0.0011498243986606,0.0011386001213516,-0.001137793028749,0.0011505759976185,0.69354142778691,1473840,32975,0.0062478008480331,0.0062478345317427,0.0043288534546323,34.639212466721,0.00019231369973377,0.00019231369973377,0.00019231369973377,1813396.4735355,0.016967001354663
13564800,0.99817782913756,0.016709949540114,0.0059013880565779,0.0059014172873341,0.0049071441962023,-0.0015038852415728,0.0015040249001805,-6.0199722236623e-06,6.1464830598e-06,-1.6534728643837e-07,3.4193671341056e-07,-0.0015740914768289,0.0015700249096945,-0.0015700646859211,0.0015740423172045,-0.0015739665779601,0.0015701736666393,-0.0015698810429247,0.0015742527301147,-0.0013548394668473,0.0013431192253389,-0.0013428323480103,0.0013551033546762,3.308012228982e-07,-1.6947724974882e-07,3.5570780640962e-07,-1.3210876217045e-07,-0.0015038666262564,0.0015040580195205,-0.0015718266744582,0.0015723295821029,-0.0015719608532113,0.0015721725967517,-0.0015719501801496,0.0015721616191878,-0.001572146211343,0.0015719792352714,-0.0013486549618065,0.0013492275579613,-0.0013491864486341,0.0013487426502918,-0.0015020045665323,0.0015025211367923,-0.0015025297302235,0.0015019347364423,6.422647916612e-06,-5.775204242915e-06,-0.0010398834235022,0.0010405182068685,8.4433404818322e-08,5.6953229499139e-07,-0.0010867421142059,0.0010912677059407,-0.0010865527594336,0.0010914232482291,-0.0010908068903031,0.0010872001046414,-0.001090642384475,0.0010873468623836,-0.0011493005662497,0.0011381153807882,-0.0011372822161906,0.001150074553836,0.69236986870921,1473840,32975,0.0062464980626319,0.0062465278040074,0.0043265785348738,34.452656028949,0.00019082124823159,0.00019082124823159,0.00019082124823159,1812536.7613896,0.016962033821749
13651200,0.9982658772677,0.016711265441547,0.0059018609121771,0.0059018901423699,0.004907514387,-0.0015036892871445,0.0015038320947528,-6.0158258605713e-06,6.1449967110667e-06,-1.6298803720864e-07,3.4287116594438e-07,-0.0015739730061287,0.0015699122792944,-0.001569948337914,0.0015739277600024,-0.0015738485686863,0.0015700604904071,-0.0015697646970736,0.001574137090127,-0.001354511652617,0.0013427998526546,-0.0013425094676289,0.0013547766891418,3.3235603818004e-07,-1.666006917724e-07,3.5595491004857e-07,-1.2887194008763e-07,-0.0015036704528152,0.0015038660840362,-0.0015717099442532,0.0015722162788426,-0.0015718435089922,0.0015720600688601,-0.0015718327946515,0.0015720481437083,-0.001572027658544,0.0015718670105812,-0.0013483316754002,0.0013489038227359,-0.0013488591188994,0.0013484226038261,-0.0015017883120541,0.0015023080657376,-0.0015023107930861,0.0015017237901121,6.4198671082034e-06,-5.7726542753496e-06,-0.001039397303978,0.0010400311754177,8.5889221599354e-08,5.6758826267501e-07,-0.0010862477499046,0.0010907715597221,-0.0010860599995293,0.0010909262163437,-0.001090311268684,0.0010867063999975,-0.0010901492945187,0.0010868522106239,-0.0011488919846336,0.0011377107174391,-0.001136877316062,0.0011496634058289,0.69209796371083,1473840,32975,0.0062456928495286,0.0062457239381722,0.004324561700405,34.299178123688,0.0001895934249895,0.0001895934249895,0.0001895934249895,1810958.4451836,0.016958346311162
13737600,0.99834898804275,0.016712507135591,0.0059023070485358,0.0059023362783691,0.0049078638086861,-0.0015035742251639,0.0015037193637608,-6.0102194450645e-06,6.1420646496264e-06,-1.6263155790331e-07,3.4457637722157e-07,-0.0015738911830257,0.0015698357695854,-0.00156987004571,0.0015738476733156,-0.0015737665537317,0.0015699838928778,-0.0015696852130579,0.0015740579754909,-0.0013542908430171,0.0013425886895521,-0.0013422968913269,0.0013545590875305,3.3355473550813e-07,-1.6666724236868e-07,3.5620450462122e-07,-1.2916114365274e-07,-0.0015035563464653,0.0015037528188898,-0.0015716301455576,0.0015721383984296,-0.0015717633124623,0.0015719811380711,-0.0015717537103619,0.0015719699126568,-0.001571948653745,0.00157178829361,-0.0013481173315221,0.0013486886665148,-0.0013486446661063,0.0013482072579969,-0.0015017001964594,0.0015022221028393,-0.0015022254546322,0.0015016375551237,6.4167821762821e-06,-5.7668157454209e-06,-0.001038932555656,0.0010395703055222,8.752318897289e-08,5.7004686350838e-07,-0.0010858023759208,0.0010903264059977,-0.0010856140266742,0.0010904822197352,-0.0010898615595044,0.0010862645426913,-0.0010896999967376,0.0010864104429408,-0.0011485186044916,0.0011373484643497,-0.001136512545634,0.0011492933619307,0.69185814995081,1473840,32975,0.0062452206658936,0.0062452526275469,0.0043226444597746,34.147756001384,0.00018838204801107,0.00018838204801107,0.00018838204801107,1808071.9089648,0.016955437179997
13824000,0.99842747047173,0.016713679369969,0.0059027281809263,0.0059027574105253,0.0049081937785176,-0.0015034559576591,0.0015036099225288,-6.0018742564254e-06,6.144420962589e-06,-1.5969953465231e-07,3.4984605743894e-07,-0.0015738147666534,0.0015697695330943,-0.0015697967975184,0.0015737792899521,-0.0015736908966092,0.0015699178073813,-0.0015696101851785,0.0015739911323977,-0.0013540253883009,0.00134233740025,-0.001342033900102,0.0013543039464376,3.3805638286225e-07,-1.6462441514459e-07,3.5830553551134e-07,-1.2327454070591e-07,-0.0015034395708576,0.0015036427414722,-0.0015715567573123,0.0015720705273291,-0.0015716883231098,0.0015719152695057,-0.001571680651801,0.0015719013852301,-0.00157187600259,0.0015717210921221,-0.0013478561946719,0.0013484319348218,-0.0013483805845224,0.001347953095605,-0.0015016158380833,0.001502149601452,-0.0015021491482833,0.0015015629390343,6.3965628763332e-06,-5.781302913036e-06,-0.0010384772722945,0.0010390791127385,7.247465177296e-08,5.4996864264072e-07,-0.0010853521487576,0.0010898402994988,-0.0010851643136987,0.0010899930800047,-0.0010894085009282,0.0010857780104149,-0.0010892499684307,0.0010859226187412,-0.0011481915798653,0.0011369877693351,-0.0011361914866467,0.001148932279901,0.69164748523722,1473840,32975,0.0062447487764886,0.0062447825105803,0.0043206841452247,33.996526010522,0.00018717220808417,0.00018717220808417,0.00018717220808417,1805407.6641022,0.016952485772255
13910400,0.99850161173384,0.01671478651258,0.0059031258870643,0.0059031551166331,0.0049085055088822,-0.001503330509592,0.0015034842059644,-5.9999414466091e-06,6.1422228593908e-06,-1.6109668778065e-07,3.5098878799603e-07,-0.001573713620872,0.0015696686574608,-0.0015696970608752,0.0015736770628497,-0.0015735889300475,0.0015698177753264,-0.0015695096053761,0.0015738897496913,-0.0013538117234061,0.0013421283459292,-0.0013418243104529,0.0013540909493029,3.3885238582129e-07,-1.6637825784969e-07,3.5771973736248e-07,-1.2363857472923e-07,-0.0015033144620307,0.0015035166868762,-0.0015714558667583,0.0015719694360733,-0.0015715873241321,0.0015718142684569,-0.0015715805950078,0.0015717994558039,-0.0015717758359135,0.0015716192411447,-0.0013476459214236,0.0013482196338884,-0.0013481700406599,0.0013477409860121,-0.0015015163665547,0.0015020517972507,-0.0015020521979925,0.0015014625949771,6.3909957484687e-06,-5.7827549416412e-06,-0.001038018833516,0.001038613713632,6.9120755533423e-08,5.4638736067389e-07,-0.0010849234319386,0.0010894033509881,-0.0010847356670051,0.0010895560747033,-0.001088978424223,0.0010853424319084,-0.0010888199570013,0.0010854869749057,-0.0011478159720475,0.0011366090826357,-0.001135819915177,0.0011485496244039,0.69146350980002,1473840,32975,0.0062442281817379,0.0062442619185347,0.0043187704642453,33.845315204381,0.00018596252163504,0.00018596252163504,0.00018596252163504,1802569.5342721,0.016949480936606
13996800,0.99857167951683,0.016715832626128,0.0059035016280384,0.0059035308575783,0.0049088001405118,-0.0015031975352624,0.0015033539732968,-5.9950537126369e-06,6.1400851719286e-06,-1.6100126504634e-07,3.5363783478773e-07,-0.0015736031084907,0.0015695623819471,-0.0015695888562635,0.0015735683996759,-0.0015734775751356,0.0015697123432505,-0.0015694005676976,0.0015737819543878,-0.001353592024669,0.0013419191384885,-0.0013416114092088,0.0013538747872261,3.3962514919115e-07,-1.6814822615735e-07,3.5773459179754e-07,-1.246295186563e-07,-0.001503183349555,0.0015033845925579,-0.0015713473319753,0.0015718611345933,-0.0015714791745364,0.0015717056218747,-0.0015714729032114,0.001571690299741,-0.0015716685291606,0.0015715097421606,-0.0013474318354281,0.0013480047182371,-0.0013479569467674,0.0013475250583374,-0.0015014111523631,0.0015019477382229,-0.0015019494880235,0.0015013560464565,6.3919414286553e-06,-5.7747724977635e-06,-0.0010375534236816,0.0010381571529145,7.3032364374753e-08,5.5131988595181e-07,-0.0010844883532873,0.0010889743861634,-0.0010843002519942,0.0010891274431136,-0.0010885409886592,0.001084915823994,-0.0010883822009805,0.0010850606897248,-0.0011474294895896,0.0011362387259748,-0.0011354403357592,0.001148172398253,0.69130414592877,1473840,32975,0.0062436826616069,0.0062437163992286,0.0043168606007729,33.694106345563,0.0001847528507645,0.0001847528507645,0.0001847528507645,1799750.838715,0.016946429295013
14083200,0.99863792350207,0.016716820290043,0.0059038563670887,0.0059038855966014,0.0049090783263532,-0.0015030550360897,0.0015032133673366,-5.9930207557636e-06,6.138130852052e-06,-1.5998900896201e-07,3.553692927576e-07,-0.0015734738845405,0.0015694361231257,-0.0015694602852546,0.0015734408860173,-0.0015733471983367,0.0015695867142056,-0.001569272555887,0.0015736544052558,-0.0013533951814006,0.0013417290632231,-0.0013414207250325,0.0013536795014821,3.4316743133013e-07,-1.6520556667157e-07,3.6236148854596e-07,-1.2407436833047e-07,-0.0015030388717848,0.001503246307763,-0.0015712159916599,0.0015717373256596,-0.0015713487254861,0.0015715805147028,-0.0015713416244053,0.0015715665649717,-0.0015715376867263,0.0015713843464533,-0.0013472353829404,0.001347816885215,-0.0013477637668751,0.0013473326860435,-0.0015012896663521,0.0015018325404968,-0.0015018254909716,0.0015012382530003,6.3975788443704e-06,-5.765159940511e-06,-0.0010370932190176,0.001037713199196,7.8625176961696e-08,5.6181613284461e-07,-0.0010840665347377,0.0010885660361627,-0.0010838781294286,0.0010887212521801,-0.0010881205466722,0.0010845105419814,-0.0010879578173045,0.0010846577560943,-0.0011470255359512,0.0011358589308088,-0.0011350400476765,0.0011477830810531,0.69033353912436,1473840,32975,0.0062430958760487,0.0062431303219702,0.0043149874907726,33.542897658085,0.00018354318126468,0.00018354318126468,0.00018354318126468,1796825.3290236,0.016943331829053
14169600,0.99870057667195,0.016717750038683,0.0059041903768748,0.0059042196064141,0.0049093400553941,-0.0015028423440257,0.0015029988039977,-5.9908740037363e-06,6.1358822338243e-06,-1.6153479631353e-07,3.5419735218504e-07,-0.0015733363751935,0.001569298115333,-0.0015693249381151,0.001573301494686,-0.0015732104230096,0.0015694484701731,-0.0015691362328675,0.001573515177718,-0.0013530330383433,0.0013413688132965,-0.0013410612710114,0.0013533159844738,3.3987737377585e-07,-1.6898220830265e-07,3.579483124787e-07,-1.2540357729381e-07,-0.00150282848364,0.0015030291337653,-0.0015710818551768,0.0015715958573464,-0.0015712140684842,0.0015714399586839,-0.0015712076859696,0.0015714244786157,-0.0015714037720632,0.0015712436242317,-0.0013468772853225,0.0013474501647877,-0.0013474036165848,0.0013469694602652,-0.0015010687974825,0.0015016051735994,-0.0015016080109487,0.0015010127171762,6.3862838109022e-06,-5.7720819167276e-06,-0.0010366183723248,0.0010372191076129,7.1116393558346e-08,5.5030506143047e-07,-0.0010835770462434,0.0010880571623122,-0.0010833885593148,0.0010882102822365,-0.0010876267092853,0.001084001003923,-0.0010874677584088,0.001084146242716,-0.001146645146315,0.0011354599747648,-0.0011346641885532,0.0011473849482318,0.68709731331066,1473840,32975,0.0062422110778929,0.006242244890313,0.0043129793512912,33.391688868768,0.00018233351095014,0.00018233351095014,0.00018233351095014,1795425.3864687,0.016939489376632
14256000,0.99875985651153,0.016718625334171,0.0059045048985689,0.0059045341280985,0.004909586307504,-0.0015024094750954,0.0015025712009044,-5.9831666360179e-06,6.1334625488532e-06,-1.6162462898967e-07,3.5954084537855e-07,-0.0015730959763985,0.0015690645393192,-0.0015690877972768,0.001573064360697,-0.0015729682276179,0.0015692167390952,-0.001568897403932,0.001573280021912,-0.001352363500425,0.0013407163721619,-0.0013404012155334,0.0013526535054204,3.4214040757281e-07,-1.7210857173574e-07,3.5422362371438e-07,-1.2252856854738e-07,-0.0015023986361585,0.0015025984656246,-0.0015708453850496,0.0015713581489485,-0.0015709754445037,0.0015712044384768,-0.0015709730850522,0.0015711850605462,-0.0015711669264426,0.0015710064347986,-0.0013462206853713,0.0013467842963464,-0.0013467402877119,0.0013463103820528,-0.001500509170606,0.0015010521492468,-0.0015010535986924,0.0015004545422364,6.3862508442844e-06,-5.7619550673355e-06,-0.0010360995259145,0.001036710294834,7.9291426974098e-08,5.5202239593467e-07,-0.0010829499964823,0.0010874386966844,-0.0010827637299622,0.0010875898887127,-0.0010869964033819,0.0010833862718599,-0.0010868394925838,0.0010835293539993,-0.0011461889901183,0.0011350218047821,-0.0011342180549494,0.0011469369494822,0.68368226089649,1473840,32975,0.0062404300571165,0.0062404637799265,0.0043108468012244,33.240480090282,0.00018112384072226,0.00018112384072226,0.00018112384072226,1797337.8772536,0.016933697635379
14342400,0.9988155924911,0.01671945123158,0.0059048015448708,0.0059048307743812,0.0049098189123284,-0.0015017128266317,0.0015018804609789,-5.9721004312185e-06,6.1278568249057e-06,-1.6272800939828e-07,3.6657949139555e-07,-0.0015725972215171,0.0015685742337257,-0.0015685941672462,0.0015725690474745,-0.001572465955702,0.0015687295321761,-0.0015684014724622,0.0015727866064114,-0.0013514399814451,0.0013398193821853,-0.001339496565744,0.0013517387719094,3.4359420596851e-07,-1.7882840683369e-07,3.4911681954619e-07,-1.231097150364e-07,-0.0015017076030997,0.0015019020282026,-0.0015703526801014,0.0015708620065885,-0.0015704818919889,0.0015707091576198,-0.0015704833557141,0.0015706857343726,-0.0015706754782473,0.0015705085788896,-0.0013453176259439,0.0013458678203407,-0.0013458320159341,0.0013453982825612,-0.0014996710276549,0.0015002169822452,-0.0015002211316183,0.0014996124268448,6.3801624770921e-06,-5.7514551446477e-06,-0.0010353900672844,0.0010360052578513,8.3890871722218e-08,5.5213489671161e-07,-0.0010821300853457,0.0010866194648279,-0.0010819459609121,0.0010867690516414,-0.0010861715974153,0.0010825724150021,-0.0010860156133034,0.0010827142743801,-0.0011455144057085,0.0011343672512752,-0.0011335604804433,0.0011462644682982,0.68609895213368,1473840,32975,0.0062375582747025,0.0062375918284771,0.0043079111465005,32.967806829608,0.00017894245463686,0.00017894245463686,0.00017894245463686,1799173.6642174,0.016924870666706
14428800,0.99886780094072,0.016720224997354,0.0059050794148767,0.0059051086443761,0.0049100369381014,-0.0015014166478409,0.0015015870545858,-5.9656493994532e-06,6.1235444457224e-06,-1.6279184332096e-07,3.7095775295878e-07,-0.0015721731774548,0.001568154224929,-0.0015681733728696,0.0015721455451364,-0.0015720401626527,0.0015683118766426,-0.0015679804019506,0.0015723654510252,-0.001351194186263,0.0013395884653006,-0.001339260823338,0.0013514979006047,3.4722896787322e-07,-1.7915694169426e-07,3.5411253911891e-07,-1.2673671005437e-07,-0.0015014119338698,0.0015016092358161,-0.0015699285064371,0.0015704425322825,-0.0015700580019882,0.0015702881645328,-0.0015700604717143,0.0015702676305391,-0.0015702545610596,0.0015700871688249,-0.0013450770688437,0.0013456372015815,-0.0013456002374434,0.0013451569374758,-0.001499546656432,0.0015001000164955,-0.001500097872483,0.0014994855731039,6.379753773627e-06,-5.7397415156409e-06,-0.0010346646078056,0.0010352925699341,8.5473665282079e-08,5.6298562585405e-07,-0.0010815064824366,0.0010860003107575,-0.0010813205476503,0.0010861545913777,-0.0010855452110899,0.0010819600072406,-0.0010853841819844,0.0010821058065019,-0.001144871548639,0.0011337548948951,-0.001132932453511,0.0011456364953255,0.68623946362067,1473840,32975,0.0062363364337098,0.0062363723115032,0.0043049327624762,32.615295419204,0.00017612236335363,0.00017612236335363,0.00017612236335363,1791428.5062757,0.016919359939394
14515200,0.99891673267752,0.016720950501749,0.0059053399139958,0.0059053691436077,0.0049102414441456,-0.0015008758626264,0.0015010456264901,-5.9567541500549e-06,6.1150058671958e-06,-1.6516793967147e-07,3.7132351587912e-07,-0.0015716052427169,0.0015675915995918,-0.0015676120181943,0.0015715766201199,-0.0015714724199198,0.0015677489786737,-0.0015674166926578,0.0015717973285971,-0.0013506288861428,0.0013390391625298,-0.0013387111484997,0.0013509322154439,3.463780064459e-07,-1.8321164551881e-07,3.5490328217393e-07,-1.3019731856419e-07,-0.0015008724645705,0.0015010654502417,-0.0015693630820383,0.0015698768949284,-0.0015694958399303,0.0015697204336593,-0.0015694958406465,0.0015696987517106,-0.0015696923935908,0.0015695172473946,-0.0013445170183129,0.0013450770417235,-0.0013450449633408,0.0013445943204267,-0.0014990443628662,0.0014995931423919,-0.0014996034139731,0.0014989797852592,6.3617002865889e-06,-5.74157854698e-06,-0.0010338886394001,0.0010344953522728,7.3210271004709e-08,5.5422452237822e-07,-0.0010807999907439,0.0010852670697494,-0.0010806110996679,0.0010854208833205,-0.0010848316050625,0.0010812294798802,-0.0010846717915919,0.0010813754058398,-0.0011441333378836,0.0011330090771733,-0.0011322067755443,0.001144879831331,0.68643188956962,1473840,32975,0.0062340952987178,0.0062341290234462,0.0043016714131782,32.257822531515,0.00017326258025212,0.00017326258025212,0.00017326258025212,1787599.2704719,0.016911483312513
14601600,0.99896263047429,0.016721631297456,0.0059055843173422,0.0059056135469369,0.0049104334331768,-0.0015003298163619,0.0015004954286011,-5.9512701916606e-06,6.1044420412135e-06,-1.6889069679241e-07,3.7121039519693e-07,-0.0015710451610709,0.0015670302753071,-0.0015670562790531,0.0015710116426241,-0.0015709091658426,0.0015671905353776,-0.0015668621234046,0.0015712335101377,-0.0013500518675081,0.0013384781532523,-0.0013381535128412,0.0013503548601046,3.4965997511531e-07,-1.83303779691e-07,3.5512579619443e-07,-1.2940947387629e-07,-0.0015003233738573,0.0015005191231085,-0.0015688009086204,0.0015693180623383,-0.001568932714138,0.0015691618363134,-0.0015689365264573,0.0015691405252036,-0.0015691306703645,0.0015689599837688,-0.0013439512248725,0.0013445097397586,-0.0013444767155251,0.0013440279159315,-0.0014985340777301,0.0014990898776103,-0.0014990902382596,0.0014984714536159,6.3515629568258e-06,-5.735122919929e-06,-0.0010331121557382,0.0010337168599659,7.1890238898784e-08,5.5362419366302e-07,-0.0010800568669801,0.001084514937589,-0.0010798702516966,0.0010846713940244,-0.0010840844903513,0.0010804856747158,-0.0010839214463396,0.0010806321924444,-0.0011433931835367,0.0011322860896735,-0.001131486639702,0.0011441379039149,0.68667201219373,1473840,32975,0.0062318251470209,0.0062318605818578,0.004298447767551,31.899887640571,0.00017039910112456,0.00017039910112456,0.00017039910112456,1783675.96618,0.016903590001774
14688000,0.99900571767632,0.016722270704275,0.0059058138207809,0.0059058430504541,0.0049106138330399,-0.0014997687153582,0.0014999540498708,-5.9307326509166e-06,6.1026506674491e-06,-1.5843381839772e-07,3.8127682682081e-07,-0.0015704689374448,0.0015664819657863,-0.0015664870531319,0.0015704549690133,-0.0015703330188954,0.0015666417414215,-0.0015662942272661,0.0015706767295276,-0.0013494544351032,0.0013379220591297,-0.0013375778690025,0.0013497751396961,3.5422852308576e-07,-1.7832931672996e-07,3.6249058725674e-07,-1.2770116151426e-07,-0.0014997657477084,0.0014999709837037,-0.0015682312208116,0.0015687595365896,-0.0015683653115315,0.0015686024972834,-0.0015683660254217,0.0015685814422236,-0.0015685627188397,0.001568398969197,-0.0013433629748811,0.0013439380195814,-0.0013438968959316,0.0013434501988279,-0.0014980189191936,0.0014985834199761,-0.0014985719256555,0.0014979621307495,6.3580679526743e-06,-5.7059454575608e-06,-0.0010323134684852,0.0010329530304628,8.6136823998624e-08,5.7374042378588e-07,-0.001079296400746,0.0010837793215903,-0.0010791084913228,0.0010839370806422,-0.0010833158232378,0.0010797579838647,-0.001083150704694,0.0010799071767912,-0.0011426312294994,0.0011315851384681,-0.0011307470449372,0.0011434117530195,0.68695616268118,1473840,32975,0.0062295421058623,0.006229570739623,0.0042952084567771,31.541906846707,0.00016753525477366,0.00016753525477366,0.00016753525477366,1779801.827492,0.016895645952858
14774400,0.99904619897734,0.016722871757322,0.0059060295192769,0.005906058748634,0.0049107834894115,-0.00149921368291,0.0014993957922536,-5.9227450240762e-06,6.091113289613e-06,-1.6036165881728e-07,3.80131205601e-07,-0.0015698999192611,0.0015659154378026,-0.0015659238987192,0.0015698816594013,-0.0015697624455225,0.0015660755320965,-0.0015657302576156,0.0015701032692352,-0.0013488633902197,0.0013373476486171,-0.0013370060873802,0.0013491799397055,3.567150717894e-07,-1.7636726304071e-07,3.6800063940666e-07,-1.2901709644068e-07,-0.0014992073879637,0.0014994168518569,-0.0015676597982758,0.0015681941948698,-0.0015677964158668,0.0015680357121368,-0.0015677950334461,0.0015680162583254,-0.0015679937812471,0.0015678325320308,-0.0013427747840333,0.0013433606211191,-0.0013433156345317,0.0013428670073942,-0.001497502308352,0.0014980691547619,-0.0014980546813114,0.0014974476291053,6.3441555064279e-06,-5.700496238194e-06,-0.0010315376332172,0.0010321683158871,7.7918157241899e-08,5.7281190975917e-07,-0.0010785581414035,0.0010830234719313,-0.001078367500253,0.0010831836204152,-0.0010825713654419,0.0010790079619941,-0.0010824032732004,0.0010791598981035,-0.0011418934433753,0.0011308606895312,-0.0011300279663534,0.0011426674164328,0.68728112461039,1473840,32975,0.0062272366841747,0.0062272669721046,0.0042919731976857,31.183921428424,0.00016467137142739,0.00016467137142739,0.00016467137142739,1775937.3430173,0.016887669170623
14860800,0.99908426205973,0.016723437235088,0.0059062324141663,0.0059062616433081,0.0049109431776136,-0.0014986339635218,0.0014988567666538,-5.8945094559907e-06,6.1041554099832e-06,-1.4065611114359e-07,3.9946036272971e-07,-0.0015693040486227,0.0015653661505291,-0.0015653344261249,0.0015693279600249,-0.0015691681596542,0.001565527255732,-0.0015651415759318,0.0015695500559504,-0.0013482503282046,0.0013367916003389,-0.0013364097503609,0.0013486078215077,3.447684878801e-07,-1.8806524333179e-07,3.5727372695771e-07,-1.4043516274724e-07,-0.0014986577307786,0.0014988442524155,-0.0015670977825949,0.0015676089031797,-0.0015672331831963,0.0015674499283677,-0.0015672327741964,0.0015674332501561,-0.0015674325979567,0.0015672470205635,-0.0013421984407548,0.0013427663749752,-0.0013427427255006,0.0013422693119039,-0.001496991339967,0.0014975348709033,-0.0014975475464764,0.0014969143066592,6.355856670851e-06,-5.6738329871223e-06,-0.0010307386440545,0.0010314076808169,9.7015613706066e-08,5.9158493016387e-07,-0.0010777936948038,0.0010822942632946,-0.0010776049908581,0.0010824538615259,-0.0010818030002198,0.0010782823463845,-0.0010816350426518,0.0010784349118969,-0.0011411344492892,0.0011301575779277,-0.0011292863901901,0.0011419475033731,0.68764405786955,1473840,32975,0.0062249199668223,0.0062249429832803,0.0042887398218488,30.825935550354,0.00016180748440283,0.00016180748440283,0.00016180748440283,1772086.2527918,0.016879662320036
14947200,0.99911994555305,0.016723967710248,0.0059064227162952,0.0059064519448557,0.0049110930490968,-0.0014979181726417,0.0014981823987427,-5.8660131450191e-06,6.1156556138272e-06,-1.1912253768489e-07,4.1995483232802e-07,-0.0015685719365671,0.0015646815360166,-0.0015646080741605,0.0015686381416224,-0.0015684362570386,0.0015648428692864,-0.0015644158859138,0.0015688598437637,-0.0013475053208739,0.0013361035218243,-0.0013356824624049,0.0013479020249761,3.4178988126121e-07,-1.898053942097e-07,3.5619520286688e-07,-1.44203543378e-07,-0.0014979651566434,0.0014981472353062,-0.0015663922472401,0.0015668990524475,-0.0015665277810468,0.0015667397975155,-0.0015665271089517,0.0015667243077429,-0.0015667269414788,0.0015665371102644,-0.0013414835339463,0.0013420503357261,-0.0013420291725011,0.0013415494749832,-0.0014963384959043,0.0014968758597497,-0.0014968913626676,0.001496254090054,6.3507594786232e-06,-5.6619206168004e-06,-0.001029845752302,0.0010305218635043,9.9263814034736e-08,5.9727430613564e-07,-0.0010769356777201,0.0010814357146126,-0.0010767463927156,0.0010815977077966,-0.0010809399845757,0.0010774304556426,-0.0010807704952025,0.0010775848714174,-0.001140274897942,0.0011293241331341,-0.0011284420525859,0.0011410934213874,0.688043158429,1473840,32975,0.0062220413537892,0.0062220655467388,0.0042850517588402,30.401571230125,0.000158412569841,0.000158412569841,0.000158412569841,1768062.8468869,0.016870059025996
15033600,0.99915309849743,0.016724459194837,0.0059065990445962,0.005906628272707,0.0049112318775343,-0.0014968881035338,0.0014971057088016,-5.8777902237089e-06,6.0838925963203e-06,-1.4457300688279e-07,3.9834856937739e-07,-0.0015675256171651,0.0015635941784531,-0.0015635688882639,0.001567542754982,-0.0015673903197191,0.0015637539392021,-0.0015633716692352,0.0015677653290971,-0.0013464556151865,0.0013350247112499,-0.0013346472142993,0.0013468086034658,3.4618470746943e-07,-1.8966138997693e-07,3.6021805768907e-07,-1.4234850772937e-07,-0.0014969118877974,0.001497098289948,-0.0015653236907092,0.0015658392206123,-0.0015654622675669,0.0015656768614921,-0.001565458853586,0.0015656589455594,-0.0015656612291129,0.0015654715252854,-0.0013404192001107,0.0013409882859426,-0.0013409647351896,0.0013404874441364,-0.0014953132355115,0.0014958556289477,-0.0014958775840771,0.0014952360567817,6.3176735938414e-06,-5.6753110101765e-06,-0.0010286938217429,0.0010293226873078,7.5629924735949e-08,5.7418571796704e-07,-0.001075822566212,0.0010802693428936,-0.0010756281567872,0.0010804286790268,-0.00107981748217,0.0010762679655135,-0.0010796515540355,0.0010764200534754,-0.0011391370385011,0.0011281500487649,-0.0011273195798393,0.0011399111669923,0.6860645385433,1473840,32975,0.0062176792115606,0.006217712817167,0.0042801757058495,29.802449484807,0.00015361959587845,0.00015361959587845,0.00015361959587845,1763469.4796105,0.016856239100492
15120000,0.99918391798044,0.016724913441361,0.0059067620539138,0.0059067912820176,0.00491136010543,-0.0014955826803404,0.0014958383836447,-5.8446782328382e-06,6.086876473706e-06,-1.2079189290964e-07,4.1235555946614e-07,-0.0015663132984497,0.0015624333508339,-0.0015623670985544,0.0015663741564379,-0.0015661798928918,0.0015625916364909,-0.0015621755365519,0.0015665928473799,-0.0013450377831434,0.00133367340966,-0.0013332657775129,0.0013454266645297,3.3400886000257e-07,-1.9194619962271e-07,3.4789174832816e-07,-1.4490339115137e-07,-0.0014956319991257,0.001495804369046,-0.0015641482103897,0.0015646438863689,-0.0015642827303571,0.0015644834440468,-0.0015642817741527,0.0015644678924582,-0.0015644781954815,0.0015642828348642,-0.00133904747507,0.0013395961278636,-0.001339579743114,0.0013391026331055,-0.0014939536546561,0.001494474337439,-0.0014945012884947,0.0014938635345332,6.3033533093926e-06,-5.6595810115257e-06,-0.0010274555692618,0.0010280872158575,8.2513359414744e-08,5.7177521196058e-07,-0.0010745265064439,0.0010789687830022,-0.0010743374736348,0.0010791261838754,-0.0010785130147801,0.0010749788316563,-0.0010783481889817,0.0010751282342833,-0.0011378836307687,0.0011269274810749,-0.0011260955954051,0.0011386537010578,0.68207978333048,1473840,32975,0.0062123529533637,0.0062123843651828,0.0042750426042637,29.192927956836,0.00014874342365468,0.00014874342365468,0.00014874342365468,1762302.7985955,0.016840184892567
15206400,0.99921259944009,0.016725333466119,0.0059069128219572,0.0059069420500181,0.0049114785941435,-0.0014941397144271,0.00149433270158,-5.8655184227781e-06,6.0467392095063e-06,-1.4750354074193e-07,3.7665053763968e-07,-0.0015650928620172,0.0015611594046691,-0.0015611524194492,0.0015650917945347,-0.00156496326698,0.0015613130461586,-0.0015609614978211,0.0015653076487531,-0.001343370996376,0.0013319575349803,-0.0013316124850388,0.001343693340639,3.3632793803521e-07,-1.8093718097412e-07,3.4895151850673e-07,-1.3216121977023e-07,-0.0014941519446339,0.0014943371428563,-0.0015628972963912,0.0015633987011477,-0.0015630291198049,0.0015632430406522,-0.0015630265791823,0.0015632240807844,-0.0015632214682284,0.0015630441543842,-0.0013373525617131,0.0013379049123917,-0.0013378753728276,0.0013374252989531,-0.0014922954297563,0.0014928241033737,-0.001492839918223,0.0014922239286792,6.2822885826234e-06,-5.6612020738523e-06,-0.0010262000163539,0.0010268079503492,7.6065159267186e-08,5.531344142118e-07,-0.0010730991956784,0.001077515629526,-0.0010729119887868,0.0010776679559777,-0.0010770775193983,0.0010735308793411,-0.0010769187848397,0.0010736756686354,-0.0011366264744999,0.0011256587745932,-0.0011248566261559,0.0011373709923689,0.67774697717471,1473840,32975,0.0062062491652433,0.0062062834078954,0.0042697806599386,28.582452342203,0.00014385961873762,0.00014385961873762,0.00014385961873762,1764170.5444701,0.016822423337028
15292800,0.99923932055881,0.016725731647189,0.0059070555301604,0.005907084758249,0.0049115913587792,-0.0014926241285384,0.0014928271940756,-5.8529307742394e-06,6.0421437626392e-06,-1.3786274667278e-07,3.7665493823604e-07,-0.0015637932047825,0.0015598786305011,-0.0015598588423648,0.0015638079921033,-0.0015636642211394,0.0015600308149506,-0.0015596742281314,0.0015640197104263,-0.0013416498268929,0.0013302641985681,-0.0013299161852122,0.0013419809686713,3.207336746776e-07,-1.8698477334323e-07,3.2943032701329e-07,-1.353675223276e-07,-0.0014926518073755,0.0014928148464071,-0.0015616223812157,0.001562092646654,-0.0015617488685705,0.0015619416594868,-0.0015617519747017,0.0015619238821778,-0.0015619374041495,0.0015617493484239,-0.0013356665521126,0.0013361842385183,-0.0013361697605377,0.0013357180347967,-0.0014905930828395,0.0014910945035812,-0.0014911187079099,0.001490503724993,6.2785813782079e-06,-5.6480531496107e-06,-0.0010249296491297,0.0010255479277683,8.9411850550634e-08,5.5133987476922e-07,-0.0010716757957252,0.0010761018704745,-0.0010714975704792,0.0010762499063227,-0.0010756508056875,0.0010721252064548,-0.0010754938556494,0.0010722642771241,-0.0011353312067994,0.0011243879289542,-0.0011235784629319,0.0011360782797639,0.68959763208487,1473840,32975,0.0061999953836305,0.0062000268518721,0.0042645273433088,27.971885238793,0.00013897508191034,0.00013897508191034,0.00013897508191034,1766760.3956718,0.016804360065644
15379200,0.99926424185763,0.01672610651228,0.0059071897596858,0.0059072189877521,0.0049116977648422,-0.001492657563952,0.0014928437222462,-5.8538238784027e-06,6.0258998382471e-06,-1.4681208766556e-07,3.7108316580358e-07,-0.0015632097419774,0.0015592844123815,-0.0015592824171123,0.0015632052228721,-0.0015630846274614,0.0015594353741829,-0.0015590932356487,0.0015634203659572,-0.001342127883081,0.0013307306972022,-0.0013303975996724,0.001342438660375,3.2476241600828e-07,-1.8623344048723e-07,3.3845604191921e-07,-1.4375078664339e-07,-0.0014926752711622,0.001492842085832,-0.001561029767673,0.0015615061061643,-0.0015611561290322,0.0015613525651852,-0.0015611546674608,0.0015613384232394,-0.0015613496395368,0.0015611557571501,-0.0013361274992079,0.0013366666196281,-0.0013366574680471,0.0013361824689598,-0.0014912810774386,0.0014917939369668,-0.0014918200022393,0.0014911898049251,6.2428183982223e-06,-5.6667303244856e-06,-0.0010240311287132,0.001024595843591,5.3749701911619e-08,5.3097872774729e-07,-0.0010711513661337,0.0010755132815451,-0.0010709645585398,0.0010756663341992,-0.0010751181345855,0.0010715422374575,-0.0010749616224855,0.0010716892812346,-0.0011346121685036,0.0011236365619157,-0.0011228750639566,0.0011353072565223,0.69611494094144,1473840,32975,0.0062000953701839,0.0062001283637558,0.0042607025312439,27.361308702584,0.00013409046962067,0.00013409046962067,0.00013409046962067,1744301.8366045,0.016800678722887
15465600,0.99928750846401,0.016726458387809,0.0059073157054522,0.0059073449334117,0.0049117977489452,-0.0014920648894548,0.0014922486782301,-5.8433558918321e-06,6.0148888135011e-06,-1.5270798624702e-07,3.7334325081965e-07,-0.0015622381299048,0.0015583136994689,-0.0015583168871966,0.001562227573539,-0.0015621094336894,0.0015584675915584,-0.0015581250048358,0.00156244529445,-0.0013418792655783,0.0013305072321841,-0.0013301712531865,0.0013421923522786,3.274220882212e-07,-1.9194986284339e-07,3.4546860165518e-07,-1.4963555516225e-07,-0.0014920825529478,0.0014922474478553,-0.0015600547926273,0.0015605398172947,-0.001560189794041,0.001560380674564,-0.0015601839360718,0.0015603661375514,-0.0015603840837282,0.0015601805010523,-0.0013358848914048,0.0013364319402341,-0.0013364247023034,0.0013359372591048,-0.0014909773265521,0.0014914881217408,-0.0014915261867427,0.0014908805155385,6.2538943075838e-06,-5.6354006628766e-06,-0.0010229658515726,0.0010235713345576,6.7774683380298e-08,5.5861146883128e-07,-0.0010704297081872,0.0010748214061451,-0.001070237416826,0.001074978189383,-0.0010743901568302,0.0010708545765959,-0.0010742274081099,0.0010710043193594,-0.0011335224144163,0.0011226097486964,-0.0011218047014278,0.001134268903775,0.69958334171419,1473840,32975,0.0061976340470583,0.0061976677964235,0.0042563739936636,26.750730709123,0.00012920584567298,0.00012920584567298,0.00012920584567298,1731738.11881,0.016791274504944
15552000,0.99930925176937,0.016726788120016,0.0059074336920409,0.0059074629199752,0.0049118915079994,-0.0014911707959063,0.0014913421814854,-5.8395107703982e-06,5.9994669197574e-06,-1.6115974795262e-07,3.6889564117813e-07,-0.0015611852343555,0.0015572529774282,-0.0015572697042996,0.001561160291693,-0.0015610545454671,0.0015574080671587,-0.0015570762842286,0.0015613790038495,-0.001341129934765,0.0013297672099586,-0.0013294395969001,0.0013414327759071,3.4128289083932e-07,-1.8191973359416e-07,3.6310431610133e-07,-1.4217526359498e-07,-0.0014911701033043,0.0014913592568235,-0.0015589833610191,0.0015594978218385,-0.0015591226824718,0.001559334753574,-0.0015591140113091,0.0015593218386484,-0.0015593171884142,0.0015591335993549,-0.0013351225408624,0.0013357008848486,-0.0013356701960077,0.0013351983069166,-0.0014901932853697,0.0014907254079333,-0.0014907465915675,0.0014901180879526,6.2435298910914e-06,-5.6264550272005e-06,-0.0010218302605597,0.0010224339896445,6.1645804518987e-08,5.6284518427447e-07,-0.0010694441325741,0.0010738237214849,-0.0010692485217665,0.0010739844514177,-0.0010733979528769,0.0010698639496709,-0.0010732315364182,0.0010700165805751,-0.0011323623474602,0.0011214697530196,-0.0011206636623609,0.0011331127135643,0.70132927773519,1473840,32975,0.0061939048752208,0.0061939385241919,0.004251661998818,26.14015202811,0.00012432121622488,0.00012432121622488,0.00012432121622488,1723927.5084408,0.016778900584225
15638400,0.99933005489637,0.016727104415755,0.005907546833447,0.0059075760613725,0.0049119815209352,-0.0014908835630682,0.0014910533555604,-5.8349244647414e-06,5.9928277782048e-06,-1.6249911654347e-07,3.6873274562988e-07,-0.0015608440137808,0.0015569136286277,-0.0015569323963527,0.0015608175054147,-0.0015607128861578,0.0015570693383411,-0.0015567387730377,0.0015610364929135,-0.0013408476779158,0.0013294947440576,-0.0013291690788921,0.0013411489857918,3.3678554549307e-07,-1.8763502124766e-07,3.6021218075105e-07,-1.4981280669127e-07,-0.0014908872058818,0.0014910661388398,-0.0015586475082506,0.0015591536439485,-0.001558788138133,0.0015589889586852,-0.0015587785695723,0.0015589775139286,-0.0015589830078682,0.0015587875307505,-0.0013348485022381,0.0013354210749989,-0.0013354007298439,0.0013349133142036,-0.0014899764231784,0.0014904982140074,-0.0014905299309367,0.0014898890997843,6.2314204464535e-06,-5.627350931955e-06,-0.0010212748676044,0.0010218657144554,5.3012995899776e-08,5.5885678480925e-07,-0.0010689550851218,0.0010733165938819,-0.001068758208998,0.0010734788532588,-0.0010729053957481,0.0010693606337407,-0.0010727372895463,0.0010695148671052,-0.0011318456711909,0.001120953122113,-0.0011201579682483,0.0011325839906774,0.70313732392917,1473840,32975,0.0061927113377699,0.0061927450771048,0.004249333609406,25.91417722144,0.00012251341777152,0.00012251341777152,0.00012251341777152,1719812.1102021,0.016774106449349
15724800,0.99935002426637,0.016727411635155,0.0059076566270851,0.0059076858550074,0.0049120691530629,-0.0014906931727167,0.0014908594122849,-5.8315149474016e-06,5.9853069077004e-06,-1.6437626556357e-07,3.6719251872409e-07,-0.0015606098816949,0.0015566796738766,-0.0015567018792254,0.0015605799264422,-0.0015604785016953,0.0015568355493591,-0.0015565083552726,0.0015607989186581,-0.0013406541762796,0.0013293087486668,-0.0013289866011589,0.00134095162842,3.4013676303038e-07,-1.8455916256327e-07,3.6462142133692e-07,-1.4829020945494e-07,-0.0014906919027029,0.0014908771658766,-0.0015584100398812,0.0015589231084377,-0.0015585511273443,0.0015587576415217,-0.0015585411685169,0.0015587474655387,-0.0015587461138684,0.0015585561356418,-0.0013346542143439,0.0013352362643039,-0.0013352096948313,0.0013347249468034,-0.0014898411026208,0.0014903691310076,-0.0014903941504521,0.0014897587708375,6.2196276676481e-06,-5.628080188884e-06,-0.0010207999711331,0.001021378540215,4.5403719866289e-08,5.5411146206984e-07,-0.0010685550604719,0.0010728997159748,-0.0010683578269945,0.0010730631268751,-0.0010725021693847,0.001068948070514,-0.0010723328122068,0.0010691034634482,-0.0011314067678081,0.0011205149785214,-0.0011197304066047,0.0011321330595848,0.71137696360165,1473840,32975,0.0061919146986945,0.0061919485576892,0.0042473406142652,25.737768314541,0.00012110214651633,0.00012110214651633,0.00012110214651633,1715910.0600846,0.016770460562346
15811200,0.99936920317141,0.016727709299051,0.0059077629480479,0.0059077921759707,0.0049121541750325,-0.001490936342904,0.0014910978262462,-5.8314379332326e-06,5.9811449922309e-06,-1.6909251403132e-07,3.6767213223437e-07,-0.0015605724261011,0.0015566373673325,-0.0015566661548557,0.0015605353103363,-0.001560440723721,0.0015567942087261,-0.001556470451909,0.001560756648672,-0.0013410855649872,0.001329740183739,-0.0013294201692633,0.0013413809287279,3.4401111298618e-07,-1.8606613656763e-07,3.7220999542187e-07,-1.544669586303e-07,-0.0014909315428559,0.0014911186802661,-0.0015583657670769,0.0015588859256544,-0.0015585103565079,0.0015587168176042,-0.0015584974906071,0.0015587088911803,-0.0015587080740959,0.0015585127372757,-0.0013350790624712,0.0013356743358502,-0.0013356503886131,0.0013351498226366,-0.0014903726419558,0.0014909057124216,-0.0014909333986308,0.0014902879834502,6.2273672321535e-06,-5.6157231178432e-06,-0.0010204526819379,0.0010210514784719,4.8544953542345e-08,5.704971133467e-07,-0.0010684383547205,0.001072797701726,-0.0010682358290919,0.001072965328936,-0.0010723839265892,0.0010688474005121,-0.0010722111706913,0.0010690077372107,-0.0011311511566975,0.0011202882852514,-0.0011194808048239,0.0011319024763965,0.71758703499533,1473840,32975,0.006192909607545,0.0061929425748645,0.004245950087456,25.564961105882,0.00011971968884705,0.00011971968884705,0.00011971968884705,1705352.0601458,0.016771070818197
15897600,0.99938762868761,0.016727996490229,0.0059078655104042,0.0059078947382675,0.0049122362415571,-0.0014908633424154,0.00149103221116,-5.8214488616859e-06,5.9787894259785e-06,-1.6722383312001e-07,3.7249442417938e-07,-0.0015603432510209,0.0015564183216597,-0.0015564407577796,0.001560312730347,-0.0015602094859248,0.0015565766512954,-0.0015562442257436,0.0015605346695894,-0.0013411392656359,0.0013298149781677,-0.0013294866146569,0.0013414427949236,3.4741135463927e-07,-1.8546143319411e-07,3.7585304947186e-07,-1.5224528148896e-07,-0.0014908600607903,0.0014910518961853,-0.0015581384976058,0.0015586663113229,-0.0015582852854576,0.0015584956177847,-0.0015582722829536,0.0015584872082365,-0.0015584828718074,0.0015582913405261,-0.0013351400624275,0.0013357401420303,-0.0013357098177123,0.0013352152221272,-0.0014903998601237,0.0014909366379325,-0.0014909626579472,0.0014903196880792,6.2268081100311e-06,-5.6044006117882e-06,-0.0010199363041453,0.0010205453373739,5.295736063169e-08,5.7695775205777e-07,-0.001068181814048,0.0010725461236547,-0.0010679786532815,0.001072714521029,-0.0010721227688429,0.0010685994345549,-0.0010719487810092,0.0010687595543448,-0.0011306077188852,0.0011197657350311,-0.0011189466738848,0.0011313710156982,0.72050768373756,1473840,32975,0.0061926204599709,0.0061926541540966,0.0042438337384335,25.39249155451,0.00011833993243608,0.00011833993243608,0.00011833993243608,1698746.8640919,0.016768332911139
15984000,0.99940533559406,0.016728273293806,0.005907964347365,0.0059079935752211,0.0049123153712199,-0.0014905751342186,0.0014907408975851,-5.8184339058591e-06,5.9718555298473e-06,-1.680949493673e-07,3.7041139729454e-07,-0.0015600565929481,0.0015561319536953,-0.0015561569402643,0.0015600238286368,-0.0015599227227485,0.0015562905716986,-0.0015559616130707,0.0015602449292778,-0.0013408143177418,0.0013294981785135,-0.0013291732032158,0.0013411133371272,3.4112286372334e-07,-1.906059950441e-07,3.6897397426574e-07,-1.5739980122892e-07,-0.0014905759811725,0.001490756405825,-0.0015578584837685,0.0015583735671556,-0.0015580039797393,0.001558203665825,-0.0015579919567843,0.0015581955420082,-0.0015582012588867,0.0015579998468881,-0.0013348255745262,0.0013354142211282,-0.0013353942587367,0.0013348888007736,-0.0014901097641214,0.0014906353529882,-0.0014906696816062,0.001490018204329,6.2180592370233e-06,-5.6030049933028e-06,-0.0010193491627907,0.0010199508386288,5.0325778154434e-08,5.725716791567e-07,-0.0010677097614927,0.0010720639842642,-0.001067508293768,0.001072231442583,-0.0010716480763354,0.0010681207649841,-0.0010714737388369,0.0010682808096379,-0.001130010559477,0.0011191742846773,-0.0011183620880845,0.0011307655602408,0.72255837800999,1473840,32975,0.0061914192743118,0.006191452868319,0.0042413846618804,25.220055276579,0.00011696044221263,0.00011696044221263,0.00011696044221263,1695588.8246046,0.016763400450894
16070400,0.99942235682376,0.016728539887959,0.0059080595266642,0.0059080887545124,0.0049123916067822,-0.0014902731056683,0.001490440857114,-5.8133723324656e-06,5.9684662688716e-06,-1.664524473442e-07,3.707304866541e-07,-0.0015597640702042,0.0015558448922848,-0.0015558672151723,0.0015597339120732,-0.0015596306869381,0.0015560030997542,-0.001555672536276,0.0015599545598479,-0.0013404754276682,0.001329169221574,-0.0013288424946561,0.0013407754501523,3.3717003141158e-07,-1.9328083315046e-07,3.6444380722185e-07,-1.5950861773175e-07,-0.001490278337081,0.0014904521417506,-0.0015575726019127,0.0015580797160865,-0.0015577172143716,0.00155791064507,-0.00155770584198,0.0015579024666569,-0.0015579141792131,0.0015577075285465,-0.0013344960908376,0.0013350766473898,-0.0013350622669138,0.0013345529914641,-0.0014898022206918,0.0014903209502433,-0.0014903605709448,0.0014897047709198,6.2116862575521e-06,-5.6008839656208e-06,-0.0010187838503444,0.0010193810796736,4.9371904809669e-08,5.6925969631512e-07,-0.0010672376511487,0.0010715849869251,-0.0010670371095706,0.0010717519001994,-0.0010711732394733,0.0010676449195657,-0.0010709994682401,0.0010678040107098,-0.0011294410285544,0.0011186081941688,-0.0011178007595455,0.0011301906290529,0.72392200801043,1473840,32975,0.006190171637558,0.0061902055645662,0.0042390318100041,25.047622295172,0.00011558097836137,0.00011558097836137,0.00011558097836137,1692882.97973,0.016758471692466
16156800,0.99943872359999,0.016728796526384,0.0059081511426993,0.0059081803705455,0.0049124650131395,-0.0014899632890975,0.0014901302078083,-5.8092701358337e-06,5.9633855662135e-06,-1.6592938768075e-07,3.6926396478326e-07,-0.001559472147017,0.0015555559895909,-0.0015555783752561,0.0015594419582641,-0.0015593393310921,0.0015557135455225,-0.0015553843943803,0.0015596618866686,-0.0013401211096707,0.0013288223854579,-0.0013284974293639,0.0013404195989906,3.3437530771803e-07,-1.9408653816431e-07,3.616278207036e-07,-1.6014637670352e-07,-0.0014899699581289,0.001490140177626,-0.0015572847114128,0.0015577868472455,-0.0015574286025043,0.0015576183840444,-0.0015574173183712,0.0015576103361752,-0.0015576249318816,0.0015574160032951,-0.0013341482515814,0.0013347240932566,-0.0013347120139664,0.0013342020601464,-0.0014894817301138,0.0014899955650536,-0.001490038251408,0.0014893814751685,6.207835494442e-06,-5.5956157111194e-06,-0.0010182330675912,0.0010188316821214,5.1237510186529e-08,5.6899967856657e-07,-0.0010667596609801,0.0010711059489292,-0.0010665599111533,0.001071272144003,-0.0010706923298791,0.0010671689423987,-0.0010705190785181,0.001067327368871,-0.0011288922882749,0.0011180689399618,-0.0011172606623727,0.0011296422104956,0.72473971149204,1473840,32975,0.0061888861099369,0.0061889202916005,0.004236751061676,24.87518962874,0.00011420151702991,0.00011420151702991,0.00011420151702991,1690538.5089327,0.016753539027647
16243200,0.99945446553683,0.016729043500591,0.0059082393025124,0.0059082685303621,0.0049125356677163,-0.0014896452622931,0.0014898117492914,-5.8046469400681e-06,5.9582669158057e-06,-1.6537682353085e-07,3.6840506889844e-07,-0.0015591797815808,0.0015552667839849,-0.0015552892407454,0.0015591496208417,-0.0015590471753732,0.0015554238951566,-0.0015550956638604,0.0015593688619901,-0.0013397498535368,0.0013284597376295,-0.0013281361343021,0.0013400474094261,3.3602113206513e-07,-1.9097057095617e-07,3.634329787437e-07,-1.5725863219266e-07,-0.0014896493796013,0.0014898243320503,-0.0015569919582568,0.0015574982125889,-0.0015571356768924,0.001557329813911,-0.0015571241334179,0.0015573219968454,-0.0015573312747206,0.0015571280341872,-0.001333779590724,0.001334359233454,-0.0013343417461251,0.0013338383602256,-0.0014891470765046,0.0014896642127203,-0.0014897015356774,0.0014890517287718,6.2033318460042e-06,-5.5903903088846e-06,-0.0010176968360021,0.0010182962811494,5.2236210189223e-08,5.6892629137903e-07,-0.0010662784977093,0.0010706227069889,-0.0010660791652833,0.0010707886138337,-0.0010702077755221,0.0010666889203981,-0.0010700349462733,0.0010668470626865,-0.0011283648549192,0.0011175512482396,-0.0011167424977338,0.0011291149261543,0.72512200108167,1473840,32975,0.0061875675802446,0.006187601889251,0.0042345293232023,24.702757007139,0.00011282205605711,0.00011282205605711,0.00011282205605711,1688477.3615808,0.016748599058019
16329600,0.99946961073105,0.01672928112587,0.005908324120907,0.0059083533487636,0.0049126036561994,-0.0014893132058124,0.0014894944355237,-5.7919644402287e-06,5.9607638448324e-06,-1.5808483657593e-07,3.7578338513286e-07,-0.001558880826374,0.0015549858739402,-0.0015549938502536,0.0015588651725842,-0.0015587481763451,0.0015551428125853,-0.001554799924479,0.0015590843900326,-0.0013393547385113,0.0013280893807993,-0.0013277511728144,0.0013396676102225,3.4044612604294e-07,-1.8651475360589e-07,3.6625660312033e-07,-1.5117228002128e-07,-0.0014893202264801,0.0014895040398245,-0.0015566980659317,0.0015572123090774,-0.0015568409064938,0.0015570449717306,-0.0015568302624778,0.001557035703908,-0.0015570364510571,0.0015568431337379,-0.001333394073967,0.0013339788473357,-0.0013339530013366,0.0013334619804305,-0.0014888007736836,0.0014893274845856,-0.0014893553561709,0.0014887155217069,6.1965994885964e-06,-5.5870521797098e-06,-0.0010171731469125,0.0010177693379609,5.2192142502284e-08,5.6565376985052e-07,-0.0010657941468591,0.0010701330607023,-0.0010655956154728,0.001070297864356,-0.0010697197301311,0.0010662022753971,-0.0010695483262204,0.0010663591982448,-0.0011278572526768,0.0011170482581066,-0.0011162446184181,0.0011286032981672,0.72515657015053,1473840,32975,0.0061862225124481,0.00618625666694,0.0042323509824131,24.530324403206,0.00011144259522565,0.00011144259522565,0.00011144259522565,1686653.7464049,0.016743648915183
16416000,0.99948423538123,0.016729506250673,0.0059084045761079,0.0059084338039723,0.0049126678705926,-0.0014891006903899,0.0014892739469482,-5.7928718574891e-06,5.9542613323521e-06,-1.6215180452929e-07,3.7178175705032e-07,-0.0015587087449348,0.0015548077398798,-0.0015548238122998,0.0015586847603539,-0.0015585765174488,0.0015549643505605,-0.0015546293746317,0.0015589044340625,-0.0013390685146152,0.0013277995557527,-0.0013274690888681,0.0013393740424969,3.4237540427311e-07,-1.8469382690713e-07,3.6626000199926e-07,-1.4726008526882e-07,-0.0014891017984199,0.0014892893041235,-0.0015565215251251,0.0015570383807669,-0.0015566634670668,0.0015568724710414,-0.0015566535277307,0.00155686124862,-0.0015568590730492,0.001556670223705,-0.0013331056005197,0.0013336892972676,-0.0013336610257669,0.0013331777893513,-0.0014885656733747,0.0014890972421099,-0.0014891217974282,0.0014884859278983,6.1955878903945e-06,-5.5824405355374e-06,-0.001016748455055,0.0010173482267922,5.5739252512155e-08,5.6520001303042e-07,-0.0010653946769976,0.0010697368257824,-0.0010651967904518,0.0010699002878102,-0.0010693180896279,0.0010658077774727,-0.001069148612733,0.0010659632133485,-0.001127464986028,0.001116662126752,-0.0011158567559095,0.0011282137161611,0.71157456174904,1473840,32975,0.0061853255063715,0.0061853593311477,0.0042305976137173,24.415091194609,0.00011052072955687,0.00011052072955687,0.00011052072955687,1685204.9759014,0.016740041771615
16502400,0.99949836503731,0.016729727121228,0.0059084834138226,0.0059085126416869,0.004912731065718,-0.0014880278219443,0.0014881913533293,-5.7912329499641e-06,5.9425883574474e-06,-1.636966383845e-07,3.6253785841193e-07,-0.0015581928078069,0.0015542887818645,-0.0015543117439699,0.0015581623507543,-0.0015580611573552,0.0015544431160065,-0.0015541201361697,0.0015583783647706,-0.0013374858380732,0.0013262195629156,-0.0013259024117526,0.0013377794336102,3.2341325548234e-07,-1.9604585550439e-07,3.3870896952504e-07,-1.4962513982167e-07,-0.0014880391801218,0.0014881968910411,-0.001556024368064,0.0015565023757901,-0.0015561592850041,0.0015563435891546,-0.001556154875946,0.0015563269299965,-0.0015563510461548,0.001556144786631,-0.0013315513453119,0.0013320820808507,-0.0013320780919418,0.0013315945109915,-0.0014870173808575,0.0014875167753269,-0.0014875645903953,0.0014869164599466,6.1896427046566e-06,-5.5753583698001e-06,-0.0010161341489471,0.001016735117312,6.9369537606949e-08,5.5432000113023e-07,-0.0010644020165652,0.0010687483646827,-0.0010642136186553,0.0010689043682439,-0.0010683210867971,0.0010648239444816,-0.0010681588553585,0.0010649709011466,-0.0011268153053769,0.0011160174458359,-0.0011152187592445,0.0011275563939489,0.72247547063115,1473840,32975,0.0061808654636305,0.0061809001835216,0.0042280408674228,24.305830852523,0.00010964664682018,0.00010964664682018,0.00010964664682018,1698082.1358857,0.016728370807801
16588800,0.99951201923381,0.016729943670665,0.0059085606233998,0.0059085898513109,0.0049127931959543,-0.0014887230425373,0.0014888890971168,-5.793543003461e-06,5.9480556841682e-06,-1.6321822588024e-07,3.6562111166738e-07,-0.0015584198372295,0.0015545152529125,-0.0015545368583153,0.0015583901137416,-0.0015582896156127,0.0015546699301986,-0.0015543439047854,0.0015586084028423,-0.0013385216496854,0.0013272483817378,-0.001326926465664,0.0013388187245209,3.4406714667538e-07,-1.7791297346778e-07,3.6871645924321e-07,-1.4104686242664e-07,-0.0014887162954284,0.0014889122488734,-0.0015562279556746,0.0015567502051195,-0.0015563687158978,0.0015565856296668,-0.001556358185785,0.0015565747501372,-0.0015565627433378,0.0015563849873519,-0.0013325530994703,0.0013331429193556,-0.0013331049452644,0.0013326359474832,-0.0014881722790176,0.0014887087339384,-0.001488724400437,0.0014881024467934,6.195597693504e-06,-5.5768966186692e-06,-0.0010160370907765,0.0010166424080267,6.0223914633335e-08,5.6591577371051e-07,-0.0010646489411543,0.0010689960795461,-0.0010644519228817,0.0010691584020472,-0.0010685703416487,0.0010650689437346,-0.0010684024376559,0.0010652230106709,-0.0011268809027026,0.0011160866416897,-0.0011152773884125,0.001127634376687,0.73311497551863,1473840,32975,0.0061837466632871,0.0061837803631636,0.0042276597772729,24.197025144828,0.00010877620115862,0.00010877620115862,0.00010877620115862,1683028.9482431,0.016733843734199
16675200,0.99952521631026,0.016730154666201,0.0059086358241077,0.0059086650520131,0.0049128537900798,-0.0014891847960244,0.0014893518791113,-5.7955713539101e-06,5.9510733825049e-06,-1.6519865836344e-07,3.687199695889e-07,-0.0015585178840931,0.0015546109864475,-0.0015546332877156,0.0015584875232539,-0.0015583860280029,0.0015547673115805,-0.0015544386332114,0.0015587075337537,-0.001339272234134,0.0013279965509302,-0.001327671959853,0.0013395719851123,3.4574570207298e-07,-1.8132556621583e-07,3.7541236939654e-07,-1.4953133824582e-07,-0.0014891794273323,0.0014893736440304,-0.0015563223956189,0.0015568495922558,-0.0015564680992758,0.0015566799821056,-0.0015564542444512,0.0015566725072315,-0.0015566638289678,0.0015564776046841,-0.0013332966862508,0.0013338980749971,-0.0013338635219459,0.0013333759458858,-0.0014889702665663,0.0014895052701758,-0.0014895275343717,0.0014888935405824,6.1983629980019e-06,-5.579217852659e-06,-0.0010158661476978,0.0010164719515784,5.2926627177458e-08,5.7376153652067e-07,-0.0010648000174427,0.0010691443633807,-0.0010645979937487,0.0010693117069362,-0.0010687231761516,0.0010652155065697,-0.0010685502256434,0.0010653745993152,-0.0011267926420287,0.0011159988806265,-0.0011151840085951,0.0011275516460282,0.73881636459198,1473840,32975,0.0061856582089956,0.0061856918911871,0.0042269615605804,24.088260087101,0.00010790608069681,0.00010790608069681,0.00010790608069681,1671202.1007393,0.016737023222345
16761600,0.99953797378974,0.016730359636333,0.0059087088634596,0.0059087380913586,0.0049129126815149,-0.0014891532211419,0.0014893212320708,-5.7923417471557e-06,5.9487730942839e-06,-1.6550540270511e-07,3.6994384665753e-07,-0.0015583988962101,0.0015544942600228,-0.0015545161357326,0.0015583689752731,-0.001558266531322,0.0015546511262155,-0.0015543210073224,0.0015585894729136,-0.0013392952038981,0.0013280264737649,-0.0013277004700928,0.001339596316639,3.4632184270266e-07,-1.8228322054385e-07,3.7527562655156e-07,-1.4976547202118e-07,-0.0014891485015578,0.001489342348426,-0.001556204466176,0.0015567318514533,-0.0015563502042583,0.0015565622171053,-0.0015563368226916,0.0015565542232861,-0.0015565464492309,0.0015563593355293,-0.001333323611531,0.0013339241314605,-0.0013338905051803,0.0013334019951947,-0.0014890079060906,0.0014895438261683,-0.0014895665557549,0.0014889307883277,6.1954985572202e-06,-5.5765665591796e-06,-0.0010154343472643,0.0010160399184112,5.2745030729634e-08,5.7370847002573e-07,-0.0010645598532964,0.0010689020954945,-0.00106435775915,0.0010690694516975,-0.0010684811538561,0.0010649750116068,-0.0010683081899248,0.0010651341838898,-0.001126355499512,0.0011155670557479,-0.0011147523272254,0.0011271142899342,0.74227977343735,1473840,32975,0.0061855274832068,0.0061855611667006,0.0042251738022331,23.979498366349,0.00010703598693079,0.00010703598693079,0.00010703598693079,1666127.8788186,0.01673494068631
16848000,0.99955030844637,0.016730558542835,0.0059087797295496,0.0059088089574429,0.0049129698558426,-0.0014889911969958,0.0014891591267283,-5.788632638828e-06,5.9450234642308e-06,-1.6577184032148e-07,3.7008866268904e-07,-0.0015582277073149,0.0015543253332438,-0.001554347409632,0.0015581975320006,-0.001558095189277,0.001554482353563,-0.0015541521515466,0.0015584181696939,-0.0013391203416166,0.0013278590264362,-0.0013275329041252,0.0013394215386132,3.4672167930632e-07,-1.8229216604552e-07,3.7444873789303e-07,-1.4846949522889e-07,-0.0014889862324391,0.0014891804955405,-0.0015560344777709,0.0015565617328383,-0.0015561795801789,0.00155639277198,-0.0015561669924838,0.0015563839266504,-0.0015563759155698,0.0015561897906881,-0.0013331533739598,0.0013337520399783,-0.0013337180451184,0.001333232136916,-0.0014888470521062,0.0014893842485627,-0.0014894060440888,0.0014887710790332,6.1929383595287e-06,-5.5716669670713e-06,-0.0010149541953186,0.0010155620679133,5.4946919924372e-08,5.737993538092e-07,-0.0010642145558263,0.0010685572451514,-0.0010640131446699,0.0010687239471334,-0.0010681333392301,0.0010646326955599,-0.0010679610866863,0.0010647911438823,-0.0011258580185656,0.0011150784305109,-0.0011142621341359,0.0011266184290275,0.74495605744401,1473840,32975,0.0061848549125891,0.0061848886119787,0.0042231889309749,23.870736902798,0.00010616589522238,0.00010616589522238,0.00010616589522238,1663094.7785795,0.01673155543439
16934400,0.99956223634253,0.016730751417805,0.0059088484367719,0.0059088776646603,0.0049130253163729,-0.0014888186278498,0.0014889856648332,-5.785868922403e-06,5.9403510505396e-06,-1.6586882723807e-07,3.6933981453485e-07,-0.0015580588300476,0.0015541585383518,-0.0015541806818376,0.0015580284671704,-0.001557926072087,0.001554315245621,-0.001553985892408,0.001558248515306,-0.0013389157541628,0.001327661440974,-0.0013273360785075,0.0013392149702509,3.4624003028597e-07,-1.8211804444628e-07,3.7337540464804e-07,-1.4835063063837e-07,-0.0014888135408536,0.0014890073926523,-0.0015558672757473,0.001556393271002,-0.0015560115866048,0.0015562248576969,-0.0015559997945218,0.0015562161848332,-0.0015562074598303,0.0015560220684812,-0.0013329540444032,0.0013335511165533,-0.0013335168187774,0.0013330314433815,-0.0014886742612901,0.0014892110282493,-0.0014892311886435,0.0014885977064706,6.1922273923169e-06,-5.5647306378285e-06,-0.0010144927645904,0.0010151067746003,5.8551895709248e-08,5.7640536903608e-07,-0.0010638580099175,0.0010682043321038,-0.0010636574730218,0.0010683710196364,-0.0010677749242511,0.0010642829082696,-0.0010676022512696,0.001064441167921,-0.0011253955320123,0.0011146315535735,-0.0011138081287728,0.0011261616641732,0.74697646029555,1473840,32975,0.0061841372562215,0.0061841714447042,0.0042212894476503,23.761975332837,0.0001052958026627,0.0001052958026627,0.0001052958026627,1660440.1716532,0.016728165676075
17020800,0.99957377286086,0.016730937418403,0.0059089147083674,0.0059089439362575,0.0049130787737782,-0.0014886391254599,0.0014888058820556,-5.7827706162104e-06,5.9376427514649e-06,-1.6625469128466e-07,3.6944045260119e-07,-0.0015578888865601,0.0015539898552813,-0.0015540129285173,0.001557857809104,-0.0015577562765703,0.0015541468569144,-0.0015538177951171,0.0015580782398258,-0.0013387050542924,0.0013274556415192,-0.0013271309022848,0.0013390045431,3.4564164782315e-07,-1.8320157716007e-07,3.7250862359413e-07,-1.4877544966839e-07,-0.001488634611535,0.0014888268154072,-0.0015556986891968,0.0015562233006843,-0.0015558431825521,0.001556054876942,-0.001555831183483,0.0015560455784204,-0.0015560393955008,0.0015558519585358,-0.0013327461766051,0.0013333412088412,-0.0013333090980071,0.0013328225514432,-0.0014884889884364,0.0014890245922913,-0.001489047260411,0.0014884114042904,6.1858205326595e-06,-5.5655095169623e-06,-0.0010140485599658,0.0010146554218297,5.5317333824129e-08,5.7254320666322e-07,-0.0010635095885908,0.0010678473686944,-0.0010633088754974,0.0010680135281614,-0.0010674241051482,0.0010639272381463,-0.0010672522992797,0.001064085208602,-0.0011249519728311,0.001114184438647,-0.001113369185052,0.0011257105596426,0.74480068290428,1473840,32975,0.0061833923178109,0.0061834260488683,0.0042194335968115,23.653212044727,0.00010442569635782,0.00010442569635782,0.00010442569635782,1658121.7907233,0.016724763745153
17107200,0.99958493273842,0.016731117082769,0.0059089787262887,0.0059090079541753,0.0049131304023048,-0.0014882642995623,0.0014884346365884,-5.7758964551125e-06,5.9336003153501e-06,-1.6408872633637e-07,3.7028882013127e-07,-0.0015576381373747,0.0015537467890316,-0.0015537653721413,0.0015576116543572,-0.0015575048666193,0.0015539034789447,-0.0015535707719841,0.0015578311731036,-0.001338198681237,0.001326963766276,-0.00132663595887,0.0013385005641626,3.3920225806952e-07,-1.882536104751e-07,3.6153211191844e-07,-1.4957441314575e-07,-0.0014882675679184,0.0014884480902129,-0.0015554598307628,0.0015559690408823,-0.0015556009184931,0.0015558035762594,-0.0015555920956997,0.0015557919214274,-0.0015557964956325,0.0015556013682973,-0.0013322580143058,0.0013328322583245,-0.0013328093981946,0.001332321560832,-0.001488011891865,0.0014885377682417,-0.0014885688153434,0.0014879266827366,6.1892698290281e-06,-5.5512236561536e-06,-0.0010135588905306,0.0010141832043272,6.9248119940411e-08,5.7673797536333e-07,-0.001063013264527,0.0010673675751765,-0.0010628166268072,0.001067530654406,-0.0010669246101836,0.0010634514117932,-0.0010667551392649,0.001063606150574,-0.0011244539330602,0.0011137124787137,-0.0011128814886858,0.0011252262629181,0.74370788588683,1473840,32975,0.0061818474537965,0.0061818818126818,0.0042174372409683,23.544449515814,0.00010355559612651,0.00010355559612651,0.00010355559612651,1659078.262805,0.016719592627255
17193600,0.99959553685194,0.016731287162386,0.0059090393417139,0.0059090685696135,0.0049131792510584,-0.0014873899405991,0.0014875726542402,-5.7625512576066e-06,5.9324748403488e-06,-1.5906398614017e-07,3.7681871428332e-07,-0.0015568421218979,0.0015529676374829,-0.001552974424756,0.0015568287809499,-0.0015567077105403,0.0015531253166102,-0.0015527802488323,0.0015570481638424,-0.0013372277775791,0.0013260226343607,-0.0013256829287662,0.0013375449920966,3.1846973064107e-07,-2.1064433956309e-07,3.3184592708771e-07,-1.6282630369351e-07,-0.0014874211268438,0.0014875587065211,-0.0015546975869823,0.0015551583570874,-0.0015548314515048,0.0015549977156429,-0.0015548314290553,0.0015549816562172,-0.0015550284525061,0.0015547961770002,-0.0013313337360769,0.001331849941049,-0.0013318668093835,0.0013313523144229,-0.0014871019107435,0.0014875912065768,-0.0014876600677938,0.0014869798659365,6.1683691234703e-06,-5.557585567341e-06,-0.0010126560885793,0.0010132540869606,6.5042502466667e-08,5.5609797191733e-07,-0.0010620998925025,0.0010664285148117,-0.0010619095736951,0.0010665860714744,-0.0010660066309396,0.0010625170162253,-0.0010658420056722,0.0010626664990025,-0.0011235500071302,0.0011127912834958,-0.001111994283695,0.0011242900155136,0.74096817371512,1473840,32975,0.006178252413322,0.0061782878430373,0.0042136363930193,23.1340012167,0.0001002720097336,0.0001002720097336,0.0001002720097336,1657732.5735439,0.016708418770966
17280000,0.99960560374248,0.016731447794809,0.0059090966034341,0.0059091258313697,0.0049132253600058,-0.0014864004298157,0.0014865827595631,-5.7565521975243e-06,5.9254144429588e-06,-1.5939474609421e-07,3.758271893777e-07,-0.0015559611545531,0.0015520909098756,-0.0015520978081887,0.0015559488427972,-0.0015558256783137,0.001552248737989,-0.0015519042406607,0.0015561676567531,-0.0013361237630188,0.0013249329823936,-0.0013245948089114,0.001336441779953,3.0155516084521e-07,-2.2688609098687e-07,3.0690335066772e-07,-1.7092044790263e-07,-0.001486447959075,0.0014865526345962,-0.0015538390664676,0.0015542608435897,-0.001553965912438,0.0015541046586041,-0.0015539732734606,0.0015540853906298,-0.0015541630335707,0.0015539047401158,-0.0013302637219703,0.0013307316261845,-0.0013307768310091,0.0013302472210724,-0.0014860293209322,0.0014864893966863,-0.0014865869514834,0.0014858805543873,6.156384802888e-06,-5.5565645562855e-06,-0.0010117023920081,0.0010122900891887,6.8981094844197e-08,5.4343938620049e-07,-0.001061096021003,0.0010654151769941,-0.0010609123651571,0.0010655675886153,-0.0010649990607565,0.0010615083760908,-0.0010648389733866,0.0010616520641611,-0.0011225905755639,0.0011118293310233,-0.0011110486495096,0.0011233138256647,0.73718362933033,1473840,32975,0.006174154485261,0.0061741902593056,0.0042096563232374,22.699088412186,9.6792707297484e-05,9.6792707297484e-05,9.6792707297484e-05,1657558.5067252,0.016696039152965
17366400,0.99961516503673,0.016731599489998,0.0059091506926651,0.0059091799206482,0.0049132688766851,-0.0014853290759424,0.0014855702605563,-5.7241880306406e-06,5.952233972026e-06,-1.3182818435661e-07,4.0723669123878e-07,-0.0015550357536532,0.0015512245974817,-0.0015511738575052,0.0015550807668752,-0.0015548993862526,0.0015513837127541,-0.0015509793173604,0.0015553005538182,-0.001334909028307,0.0013237841749939,-0.0013233858022448,0.0013352861578159,3.1704680946091e-07,-2.1516187134255e-07,3.1233225862154e-07,-1.4821316041742e-07,-0.0014853918920553,0.0014855242582222,-0.0015529307256614,0.0015533766566729,-0.0015530527512553,0.0015532261845203,-0.0015530664386099,0.0015531990524661,-0.0015532511287434,0.0015530244411975,-0.0013290768372133,0.001329553468201,-0.0013295727072544,0.0013290868868951,-0.0014848485535339,0.001485344824416,-0.0014854093061972,0.0014847321574396,6.1636974620182e-06,-5.5437392057313e-06,-0.0010107344231928,0.0010113418776807,8.7380497318728e-08,5.4458114987913e-07,-0.0010600347047125,0.0010643776759373,-0.0010598562923857,0.0010645240098884,-0.0010639357452104,0.001060472139886,-0.0010637814133515,0.001060609935849,-0.0011216272468815,0.0011108860784258,-0.0011100908100552,0.0011223646428311,0.73302927683259,1473840,32975,0.0061698406074379,0.0061698751590634,0.0042056786512135,22.262205494443,9.3297643955543e-05,9.3297643955543e-05,9.3297643955543e-05,1658236.8459289,0.016683221217678
17452800,0.99962425117778,0.016731742788706,0.0059092018009835,0.0059092310289973,0.004913309958725,-0.0014842678299142,0.001484514954375,-5.7167665849441e-06,5.9507721588108e-06,-1.3074609153514e-07,4.120791658514e-07,-0.0015541311238024,0.0015503275012906,-0.0015502721310296,0.0015541809109944,-0.0015539934793208,0.0015504881911991,-0.0015500766664001,0.001554401827741,-0.0013336886307243,0.0013225801658658,-0.0013221746503413,0.0013340729008599,3.2096758086504e-07,-2.1496941958692e-07,3.058778811029e-07,-1.3736634250216e-07,-0.0014843314283238,0.0014844681679877,-0.0015520299869279,0.0015524761988985,-0.0015521464389407,0.0015523312144814,-0.0015521671268572,0.0015522971086395,-0.0015523460458209,0.0015521283950429,-0.0013278719425693,0.001328334210986,-0.001328350277277,0.0013278850370852,-0.0014836553124993,0.0014841646727401,-0.00148421929262,0.0014835489408047,6.1650740422162e-06,-5.5335772045851e-06,-0.0010097783375693,0.001010397249984,1.0159881584121e-07,5.418184558525e-07,-0.0010589674667547,0.0010633245084113,-0.0010587947052999,0.0010634652697265,-0.0010628655881893,0.0010594218438691,-0.0010627167004792,0.001059554050993,-0.0011206808249088,0.0011099543170096,-0.0011091531050806,0.0011214241438676,0.7287269497604,1473840,32975,0.0061654591561123,0.0061654937047673,0.0042017328193343,21.825135907791,8.9801087262328e-05,8.9801087262328e-05,8.9801087262328e-05,1659284.4985302,0.016670299596259
17539200,0.99963289053811,0.016731878251998,0.0059092501261636,0.0059092793542097,0.0049133487716251,-0.0014832003194813,0.0014834476219676,-5.713908957241e-06,5.9480359129874e-06,-1.3383456948771e-07,4.1516406245605e-07,-0.0015532283659715,0.0015494247051953,-0.0015493709962782,0.0015532763386398,-0.001553088630027,0.0015495877404246,-0.0015491737612444,0.0015534993296107,-0.0013324545236101,0.0013213540524686,-0.0013209462537298,0.001332840720676,3.2832873967272e-07,-2.1374230817051e-07,3.0260235603871e-07,-1.2529716823402e-07,-0.0014832595401466,0.0014834050249768,-0.0015511240948923,0.0015515763325498,-0.0015512358968316,0.0015514363878376,-0.0015512635549863,0.0015513950281334,-0.001551437432928,0.0015512317061679,-0.0013266461434579,0.0013270995801373,-0.0013271092543024,0.0013266663874468,-0.0014824456852906,0.0014829739770172,-0.0014830152680844,0.0014823531116087,6.1600900491302e-06,-5.5329885181553e-06,-0.0010088385401552,0.0010094528581653,1.0678924995242e-07,5.3171768509097e-07,-0.0010579039181666,0.0010622595907179,-0.0010577362377809,0.0010623953339602,-0.0010618001529889,0.0010583587606997,-0.0010616562374992,0.0010584858531763,-0.0011197569383521,0.0011090265729386,-0.0011082346941107,0.0011204906573916,0.72456884290351,1473840,32975,0.0061610399099678,0.0061610740688587,0.0041978211356723,21.388048582686,8.6304388661484e-05,8.6304388661484e-05,8.6304388661484e-05,1660544.8467406,0.016657335596013
17625600,0.99964110949886,0.016732006538822,0.0059092958979638,0.0059093251260382,0.0049133855148202,-0.0014821375033223,0.001482388189577,-5.711274684669e-06,5.9487646929536e-06,-1.3494175701172e-07,4.1977422132658e-07,-0.0015523281811478,0.0015485267324711,-0.0015484715472863,0.0015523775704027,-0.0015521868989516,0.0015486916308301,-0.0015482722660783,0.0015526026471881,-0.0013312277027684,0.0013201338941105,-0.0013197205558246,0.0013316186187033,3.3338381079381e-07,-2.143854776487e-07,2.9703000060146e-07,-1.1493428482239e-07,-0.0014821961494757,0.0014823462136255,-0.0015502244485683,0.0015506778049534,-0.0015503310522216,0.001550543293351,-0.0015503657253963,0.0015504945375169,-0.0015505344208394,0.0015503366502348,-0.0013254288638888,0.0013258692520095,-0.0013258766661036,0.0013254523956926,-0.0014812486981451,0.0014817923522442,-0.0014818237513947,0.0014811656868023,6.1486570590699e-06,-5.5424746366689e-06,-0.0010079169654124,0.0010085101948348,1.041816116871e-07,5.1303844055989e-07,-0.0010568546643478,0.00106119386933,-0.001056692057604,0.0010613242018118,-0.0010607500421813,0.0010572937811994,-0.0010606116907681,0.0010574153314347,-0.0011188580128903,0.0011081030888662,-0.0011073372358642,0.0011195652697841,0.7213397203184,1473840,32975,0.0061566467378406,0.0061566809928967,0.0041939509288035,20.950959799832,8.2807678398653e-05,8.2807678398653e-05,8.2807678398653e-05,1661746.54107,0.016644467480458
17712000,0.99964893291387,0.016732128092375,0.0059093392737684,0.00590936850187,0.0049134203167369,-0.0014811404977858,0.0014813847548387,-5.7133786749351e-06,5.944584593958e-06,-1.4149923005478e-07,4.1989879435256e-07,-0.0015514594036334,0.0015476500846647,-0.0015476036316057,0.0015515000994736,-0.001551315767861,0.0015478170476651,-0.0015474019592503,0.0015517273672148,-0.0013300932882769,0.001318997164659,-0.0013185886540661,0.0013304806930754,3.3646399000211e-07,-2.1805835648202e-07,2.8964370204372e-07,-1.0874968590364e-07,-0.0014811966308984,0.0014813456175488,-0.0015493534513119,0.0015498030639978,-0.0015494554111254,0.0015496733015555,-0.0015494968534224,0.0015496176110413,-0.001549661074571,0.0015494640980879,-0.001324302301417,0.0013247259757701,-0.0013247374607576,0.0013243223678809,-0.0014801484434223,0.0014807029286355,-0.0014807303359113,0.0014800693479048,6.1318630160066e-06,-5.5571606440032e-06,-0.0010070202185301,0.001007582299012,9.5396152994361e-08,4.9052271580415e-07,-0.0010558531701246,0.0010601655072896,-0.0010556952914758,0.0010602911547034,-0.0010597477923527,0.0010562658647781,-0.0010596144227091,0.0010563832059914,-0.0011179909578939,0.0011072021261003,-0.0011064724615189,0.0011186620604008,0.71809250376542,1473840,32975,0.0061525055531969,0.0061525404817095,0.0041901636531466,20.514522654633,7.931618123706e-05,7.931618123706e-05,7.931618123706e-05,1662003.083698,0.016632196997153
17798400,0.99965639090509,0.016732243434797,0.0059093804393115,0.0059094096674413,0.0049134533280439,-0.0014801890228451,0.0014803868865682,-5.7272075175449e-06,5.9116112254119e-06,-1.6225943280888e-07,3.9615711280747e-07,-0.0015506325105488,0.0015467833345534,-0.0015467822607062,0.0015506262027808,-0.0015504892533295,0.0015469496424075,-0.0015465818452172,0.0015508517155293,-0.0013290005248222,0.001317875951895,-0.0013175138556033,0.0013293381691495,3.4954744573767e-07,-2.0192096499712e-07,3.0084891030536e-07,-9.1888990803362e-08,-0.0014802074223665,0.0014803849011486,-0.0015484933247891,0.0015489685190375,-0.0015485941805976,0.0015488407380743,-0.001548634038004,0.0015487830052211,-0.0015487976249717,0.0015486317729008,-0.0013231811746797,0.0013236291156474,-0.0013236133797156,0.0013232318572334,-0.0014790618974648,0.0014796451689708,-0.0014796390795543,0.0014790115363103,6.1476732214303e-06,-5.5222397710445e-06,-0.0010061120879243,0.0010067238640653,1.2278199964354e-07,5.1240910813424e-07,-0.0010548462161726,0.0010592036188115,-0.0010546908233053,0.0010593268908046,-0.0010587345713939,0.0010553102456345,-0.0010586030165187,0.001055426244976,-0.0011170999531329,0.0011063793959342,-0.0011056006780455,0.0011178189530539,0.71483190106337,1473840,32975,0.0061484701447374,0.006148503868812,0.0041864967993407,20.094038283041,7.5952306264323e-05,7.5952306264323e-05,7.5952306264323e-05,1662415.7962552,0.016620262247172
17884800,0.99966350072431,0.016732352878986,0.0059094195054188,0.0059094487335623,0.004913484640005,-0.0014791964730771,0.0014793881598902,-5.7185153904447e-06,5.8971305015549e-06,-1.6168820333515e-07,3.8888235526765e-07,-0.0015497616624121,0.0015459175839679,-0.0015459197318162,0.001549751898562,-0.0015496221143247,0.0015460807624059,-0.0015457219721181,0.0015499760528925,-0.0013278667181813,0.0013167537722275,-0.0013164006907221,0.0013281959570918,3.4382912701274e-07,-1.9970753792057e-07,2.9675661290897e-07,-9.1122846409371e-08,-0.001479212900248,0.0014793874559014,-0.0015476270530706,0.001548096110154,-0.0015477275608721,0.0015479700836417,-0.0015477659252755,0.0015479137588721,-0.0015479286678114,0.0015477647378835,-0.0013220549785544,0.0013224976810251,-0.0013224830399111,0.0013221068134947,-0.0014779713934503,0.0014785455811741,-0.0014785417602287,0.0014779205850586,6.1345337650064e-06,-5.5119356005903e-06,-0.0010052208779607,0.0010058294595525,1.2341495125542e-07,5.0794864269093e-07,-0.0010538498790185,0.0010581972297484,-0.0010536952294155,0.00105831927888,-0.001057729623064,0.001054312169173,-0.0010576005787676,0.0010544262503352,-0.0011162257838533,0.0011055208403006,-0.0011047473939491,0.0011169403109742,0.71156151173007,1473840,32975,0.006144347932171,0.0061443802274919,0.0041827902996793,19.666235506056,7.2529884048446e-05,7.2529884048446e-05,7.2529884048446e-05,1662904.8267369,0.016608110591355
17971200,0.99967028512418,0.016732457295189,0.005909456771421,0.0059094859995605,0.0049135145242072,-0.0014782038152138,0.0014784062551937,-5.7050962063447e-06,5.8946078632674e-06,-1.5005049034256e-07,3.8775257422242e-07,-0.0015488985856995,0.0015450749053557,-0.0015450622540415,0.0015489042624279,-0.0015487631196205,0.0015452332667488,-0.0015448687044876,0.0015491242555065,-0.0013267296032027,0.0013156377786357,-0.0013152813543215,0.0013270674467029,3.3278325990507e-07,-1.9801658849322e-07,2.8885700949367e-07,-9.374727490869e-08,-0.0014782301968668,0.0014783952169348,-0.0015467808890468,0.0015472357515108,-0.0015468807703689,0.0015471109876295,-0.0015469162467765,0.0015470572592988,-0.0015470773090581,0.0015469103887019,-0.0013209355591765,0.0013213655064909,-0.0013213575168813,0.0013209814309329,-0.0014768902564402,0.001477443744808,-0.0014774469589804,0.0014768323418391,6.1294370121021e-06,-5.5010917863054e-06,-0.0010043394004044,0.0010049546942744,1.2913150932394e-07,5.0835631591138e-07,-0.0010528601214808,0.0010572112567492,-0.0010527070150082,0.001057332121419,-0.0010567342271777,0.001053331478999,-0.0010566080346634,0.0010534438962635,-0.0011153636580584,0.0011046765072593,-0.0011038993043249,0.0011160811952707,0.71145773604723,1473840,32975,0.0061402603232623,0.0061402918336928,0.0041791446812833,19.246266956641,6.9170135653126e-05,6.9170135653126e-05,6.9170135653126e-05,1663559.4002165,0.016596092007179
18057600,0.99967676212478,0.016732557309466,0.0059094924531375,0.0059095216812645,0.0049135431750636,-0.0014774538719596,0.0014776643917683,-5.6939973488657e-06,5.891433308803e-06,-1.4288412664838e-07,3.8882928631374e-07,-0.001548138779941,0.0015443303140276,-0.0015443076462936,0.0015481545653721,-0.0015480057746556,0.0015444863488957,-0.0015441159453935,0.0015483729907702,-0.0013259522242625,0.0013148794413012,-0.0013145179654074,0.0013262969860186,3.3043019193749e-07,-1.9431096909211e-07,2.8914401419958e-07,-9.347033172232e-08,-0.0014774837660918,0.0014776497672791,-0.0015460291737005,0.001546482361937,-0.0015461281505015,0.0015463580121151,-0.001546162745126,0.0015463065048653,-0.0015463234688063,0.0015461592562742,-0.0013201674594443,0.0013205999257024,-0.0013205896627975,0.0013202153992995,-0.0014761756990962,0.0014767255276945,-0.0014767267956349,0.0014761188719927,6.1233397867269e-06,-5.4926609949865e-06,-0.0010035051440204,0.0010041236102094,1.3066349876492e-07,5.0985032093561e-07,-0.0010520242874575,0.0010563741868486,-0.0010518713238278,0.0010564952217992,-0.0010558934445404,0.0010524994057127,-0.0010557679356002,0.0010526121321716,-0.0011145673543396,0.0011038968374505,-0.001103117161398,0.0011152868227061,0.71381113609839,1473840,32975,0.0061371713900399,0.0061372027471353,0.0041756906815462,18.826787765298,6.5814302122382e-05,6.5814302122382e-05,6.5814302122382e-05,1660287.9638334,0.016586300202909
18144000,0.99968294838429,0.016732653046175,0.0059095265994933,0.005909555827602,0.00491357061908,-0.001476888885372,0.001477098504448,-5.6883758361146e-06,5.8849830687902e-06,-1.4176732282176e-07,3.8721128762126e-07,-0.0015474517072317,0.0015436474078669,-0.0015436249716202,0.0015474672010118,-0.0015473203573765,0.0015438022803233,-0.0015434335665573,0.0015476850897952,-0.0013254629731833,0.0013143991406316,-0.0013140394980253,0.0013258060281364,3.3156775813239e-07,-1.9051101360019e-07,2.9378634127088e-07,-9.3551092045854e-08,-0.0014769162189559,0.0014770867613228,-0.0015453418897288,0.0015457992212987,-0.0015454415826688,0.0015456742021684,-0.0015454741441076,0.0015456246181044,-0.0015456365433763,0.0015454754448548,-0.001319678016577,0.0013201206254756,-0.0013201062031315,0.0013197312221585,-0.0014757377637825,0.0014762896020788,-0.0014762870442687,0.0014756838305366,6.1135851394238e-06,-5.4901297995278e-06,-0.001002712207246,0.0010033239916875,1.2489393087467e-07,5.0862016324664e-07,-0.0010513231052985,0.0010556613066282,-0.0010511683053368,0.0010557836645489,-0.001055188170709,0.0010517905094269,-0.0010550616126986,0.0010519049055351,-0.0011138164553222,0.0011031525802984,-0.001102378557348,0.0011145303401966,0.71534987558301,1473840,32975,0.0061348290694867,0.0061348610898337,0.0041723899127444,18.407341495092,6.2458731960733e-05,6.2458731960733e-05,6.2458731960733e-05,1654029.7993599,0.016578183633818
18230400,0.99968885947873,0.016732744565306,0.0059095592371725,0.0059095884652635,0.0049135968628705,-0.0014762516578733,0.0014764513038495,-5.6831341446861e-06,5.871328600142e-06,-1.4992146681333e-07,3.8561955653848e-07,-0.0015467190897236,0.0015429081419281,-0.0015428982566204,0.0015467207944216,-0.0015465864160389,0.0015430651551022,-0.0015427032905579,0.0015469410731171,-0.0013248983794865,0.0013138450544789,-0.001313488055393,0.0013252316529401,3.4431353569066e-07,-1.8420684004239e-07,3.0808462124189e-07,-8.6557171249054e-08,-0.0014762648132723,0.0014764547631995,-0.0015445946502535,0.0015450752994742,-0.0015446977457052,0.0015449490433968,-0.0015447272807084,0.0015448975290203,-0.0015448940285847,0.0015447462562132,-0.0013191011836269,0.0013195698963108,-0.0013195402348149,0.0013191757523449,-0.0014751646562608,0.0014757392596565,-0.0014757227065578,0.0014751273708983,6.0875362515735e-06,-5.4975348579433e-06,-0.0010019204708683,0.0010024971913918,1.0316201453803e-07,4.9395267400922e-07,-0.001050627102209,0.0010549217508569,-0.0010504683649679,0.0010550456391332,-0.0010544859682626,0.0010510566397266,-0.0010543562208682,0.0010511725779097,-0.001113027187284,0.0011023497395575,-0.0011016079242554,0.0011137132726821,0.71559316971251,1473840,32975,0.0061321689263858,0.0061322030711479,0.0041690341589102,17.987897488371,5.9103179906969e-05,5.9103179906969e-05,5.9103179906969e-05,1648937.9329417,0.016569366360652
18316800,0.99969452094606,0.016732832262124,0.0059095905071131,0.0059096197352049,0.0049136220198058,-0.0014755806057989,0.0014757554911176,-5.6870334532921e-06,5.8500939848981e-06,-1.6681118027471e-07,3.7784711323533e-07,-0.0015460250398945,0.0015421919889369,-0.0015422098882914,0.0015459992113825,-0.0015458888352368,0.0015423522451114,-0.0015420122738527,0.0015462223298266,-0.0013242235231183,0.0013131660900049,-0.0013128315720849,0.001324535588311,3.4249912889971e-07,-1.9531699462019e-07,3.0288350960619e-07,-9.4440719847776e-08,-0.0014755876413459,0.0014757648314375,-0.0015438936882459,0.0015443658475502,-0.0015439975945385,0.0015442382758902,-0.0015440296696059,0.0015441850825381,-0.0015441968368181,0.0015440329588385,-0.0013184313553659,0.0013188867403352,-0.0013188720840361,0.0013184894138542,-0.0014745135831115,0.0014750830699046,-0.0014750799262361,0.001474462448785,6.0865748744689e-06,-5.4810681738544e-06,-0.0010011303873618,0.0010017226502252,1.0975882367484e-07,5.0331483317639e-07,-0.0010498623337931,0.0010541655744151,-0.0010497031026568,0.0010542905130068,-0.0010537155244444,0.0010503065222598,-0.0010535848363026,0.0010504234757803,-0.0011122512165854,0.0011016072968146,-0.0011008492037101,0.0011129530474638,0.71588545034254,1473840,32975,0.0061293384910804,0.00612937214213,0.0041657890921099,17.599329520452,5.5994636163613e-05,5.5994636163613e-05,5.5994636163613e-05,1645650.0065672,0.016560312494376
18403200,0.99970003978425,0.016732917789842,0.0059096209986986,0.0059096502267865,0.0049136465643573,-0.0014754502957114,0.0014756155657003,-5.6885275223929e-06,5.8421002749095e-06,-1.7210859553218e-07,3.7374872961757e-07,-0.0015458735166284,0.0015420327408853,-0.0015420606405171,0.0015458374078694,-0.0015457374180701,0.001542193182496,-0.0015418622828607,0.0015460612395093,-0.0013240779378894,0.0013130166953774,-0.0013126904668388,0.001324380069537,3.4818870343966e-07,-1.9083390677882e-07,3.0928033713306e-07,-9.0521567126569e-08,-0.0014754475371808,0.0014756347609006,-0.0015437330145279,0.0015442159988598,-0.0015438377742479,0.0015440879947207,-0.001543868921887,0.0015440348277435,-0.0015440373380823,0.0015438817902954,-0.0013182769708027,0.0013187443674349,-0.0013187209576525,0.001318345188931,-0.0014744113834726,0.0014749919592726,-0.0014749797168104,0.0014743694582151,6.0801111875355e-06,-5.4810123042691e-06,-0.0010008006606301,0.0010013863261256,1.0509606999485e-07,5.0103753582076e-07,-0.0010495645603506,0.0010538582501909,-0.0010494042470051,0.0010539839974627,-0.0010534155778271,0.0010500014767894,-0.001053284152194,0.0010501190963351,-0.0011119684077365,0.0011013249825254,-0.0011005721173155,0.0011126651517942,0.71621773256509,1473840,32975,0.0061287785265991,0.0061288123046366,0.0041644091122327,17.485298227895,5.5082385823155e-05,5.5082385823155e-05,5.5082385823155e-05,1643247.4168734,0.016557771425897
18489600,0.99970542401162,0.016733001277766,0.0059096507597918,0.0059096799878777,0.0049136705300968,-0.0014753403577062,0.0014754984291276,-5.6885417734828e-06,5.8349766395426e-06,-1.7573103977713e-07,3.7022178954083e-07,-0.0015457473323481,0.0015419016910594,-0.001541936839921,0.0015457039232169,-0.0015456112937534,0.0015420621225072,-0.0015417384050967,0.0015459278631036,-0.0013239453938588,0.0013128837756687,-0.0013125643426713,0.0013242402246176,3.4862545141664e-07,-1.9053196501421e-07,3.1101995132666e-07,-9.1400261875416e-08,-0.0014753335979087,0.001475521568313,-0.0015436036637914,0.0015440881493991,-0.0015437092265748,0.0015439593546856,-0.0015437395432952,0.0015439069509932,-0.0015439088130309,0.0015437530919808,-0.0013181421253406,0.0013186128491963,-0.0013185889738663,0.0013182115276851,-0.0014743341547708,0.001474914829588,-0.0014749028152366,0.0014742920818864,6.0718359153663e-06,-5.4821275379289e-06,-0.0010004905503864,0.0010010668192143,9.9003158652226e-08,4.9756477962732e-07,-0.0010492899506886,0.001053571003631,-0.0010491287082873,0.0010536977012047,-0.0010531385870313,0.0010497167169131,-0.0010530062897495,0.001049835182964,-0.0011117047073043,0.0011010597971884,-0.0011003152962971,0.0011123932745485,0.71658681806235,1473840,32975,0.006128307911711,0.0061283415718332,0.0041631047826663,17.382328553055,5.425862842444e-05,5.425862842444e-05,5.425862842444e-05,1640908.5194433,0.016555488716989
18576000,0.99971067773418,0.01673308219272,0.0059096796145289,0.0059097088426124,0.0049136937355788,-0.0014752289785196,0.0014753833757167,-5.688111421265e-06,5.830229869179e-06,-1.7789690908251e-07,3.6893675556188e-07,-0.001545619727316,0.0015417719411703,-0.0015418108949876,0.0015455725560869,-0.0015454830904778,0.0015419326080573,-0.0015416123733575,0.001545796682182,-0.0013238194091251,0.0013127592489703,-0.0013124444207552,0.0013241110425974,3.456307679563e-07,-1.9446536251966e-07,3.0725394570207e-07,-9.5735403915729e-08,-0.0014752237793997,0.0014754045665936,-0.0015434779244422,0.0015439559901816,-0.0015435832848622,0.0015438266752464,-0.0015436145369377,0.0015437745654908,-0.0015437831079926,0.0015436203282215,-0.0013180217181545,0.0013184847048966,-0.0013184678132247,0.0013180816984232,-0.0014742597332221,0.0014748341980561,-0.0014748282420684,0.001474210131638,6.0742992190313e-06,-5.4742786414476e-06,-0.0010001732931814,0.0010007602869207,1.0423231919408e-07,5.0354091170759e-07,-0.0010490071647526,0.0010532962840596,-0.0010488460729516,0.001053423826528,-0.0010528539218452,0.00104944455029,-0.0010527216884861,0.0010495636129258,-0.0011114284991611,0.0011007997380974,-0.0011000439013985,0.0011121261165633,0.7117708332687,1473840,32975,0.0061278386028977,0.0061278714600766,0.0041618124978386,17.280049594197,5.3440396753577e-05,5.3440396753577e-05,5.3440396753577e-05,1638541.6086047,0.016553220223466
18662400,0.99971580470254,0.016733161782349,0.005909707979374,0.0059097372074474,0.0049137165955271,-0.0014747457305739,0.0014748925930029,-5.6868163822334e-06,5.8219962749758e-06,-1.8154824327064e-07,3.648947472808e-07,-0.0015453536516604,0.0015415015456238,-0.0015415479947948,0.00154529881874,-0.0015452174633787,0.0015416621192647,-0.0015413494230483,0.0015455229446347,-0.0013230942252684,0.0013120359278666,-0.0013117273257561,0.0013233778180139,3.4873609825895e-07,-1.9098640562254e-07,3.0429401371152e-07,-8.4983842453728e-08,-0.0014747335331343,0.0014749211717356,-0.0015432089806543,0.0015436889411112,-0.0015433102785132,0.0015435645400493,-0.0015433450014568,0.0015435075685864,-0.0015435099860933,0.00154335811378,-0.0013172989725378,0.0013177563284099,-0.0013177331323356,0.0013173682042432,-0.0014736035384133,0.0014741887677739,-0.0014741727182293,0.0014735654657055,6.0660359541168e-06,-5.47317102921e-06,-0.00099978167333352,0.0010003609808647,1.0696774215693e-07,4.9245946257263e-07,-0.0010484594261433,0.0010527429141068,-0.0010483025456808,0.0010528653151455,-0.0010523031654829,0.0010488936496972,-0.0010521752526611,0.0010490077748539,-0.0011110775964976,0.0011004459771247,-0.0010997025959258,0.0011117650106365,0.71734314579921,1473840,32975,0.0061258227853001,0.0061258564503843,0.004160168818537,17.177816831797,5.2622534654378e-05,5.2622534654378e-05,5.2622534654378e-05,1642362.2598304,0.016547450797872
18748800,0.99972080853093,0.016733240049538,0.0059097358558308,0.005909765083902,0.0049137391098049,-0.0014750137312462,0.0014751851787027,-5.6737275885019e-06,5.8336075252347e-06,-1.6955916675618e-07,3.7736813608904e-07,-0.0015453630608252,0.0015415358913763,-0.0015415580216247,0.0015453326909042,-0.0015452267511055,0.0015416966198582,-0.0015413592387346,0.0015455569847733,-0.0013235639068051,0.0013125318142294,-0.0013121984677069,0.001323872431358,3.4906401223602e-07,-1.9099862102784e-07,3.1268839601434e-07,-9.3052120760114e-08,-0.0014750136710654,0.0014752016313528,-0.0015432279591285,0.0015437138229854,-0.0015433345632246,0.0015435839428095,-0.0015433641984018,0.0015435323286739,-0.0015435345216992,0.0015433773545041,-0.0013177737219221,0.0013182475010039,-0.0013182239677064,0.0013178430516283,-0.0014741335233333,0.0014747140411585,-0.0014747031909094,0.0014740903168241,6.062406377498e-06,-5.4753821332201e-06,-0.00099956746526494,0.0010001410329395,9.5981396268875e-08,4.978425209056e-07,-0.0010484749778211,0.0010527468454434,-0.0010483126354051,0.0010528746803843,-0.001052318177693,0.0010488979494187,-0.0010521848350315,0.00104901752893,-0.00111092401337,0.0011002933552872,-0.0010995504429618,0.0011116111967911,0.72279306116821,1473840,32975,0.0061269816648078,0.006127015352965,0.0041592748753582,17.075587327024,5.1804698616187e-05,5.1804698616187e-05,5.1804698616187e-05,1633727.3980784,0.016548899549803
18835200,0.99972569271565,0.016733316631416,0.0059097631269866,0.0059097923550558,0.0049137611493734,-0.0014752542787313,0.0014754257182156,-5.6731883969731e-06,5.8330627377286e-06,-1.6973900653755e-07,3.7759636449598e-07,-0.0015453700077256,0.0015415431061902,-0.0015415654306016,0.0015453395049052,-0.0015452336959547,0.0015417039297867,-0.0015413664795944,0.0015455640635023,-0.0013239801840043,0.0013129489991478,-0.0013126155726938,0.0013242887983857,3.494980937673e-07,-1.9098324949404e-07,3.1913582902387e-07,-9.9085258980573e-08,-0.0014752539949685,0.0014754423695192,-0.0015432326639574,0.0015437231036429,-0.0015433432654657,0.0015435891481417,-0.0015433689997965,0.0015435416322532,-0.0015435435174874,0.0015433823861888,-0.0013181843379727,0.0013186708045692,-0.001318647047196,0.0013182539021723,-0.0014746032350738,0.0014751810347467,-0.0014751736580015,0.0014745562375957,6.0625617963169e-06,-5.4741283272337e-06,-0.00099935446623326,0.00099992953559314,9.0520982322861e-08,5.0482855728951e-07,-0.0010484656857491,0.0010527346417314,-0.001048299179909,0.0010528665984953,-0.0010523085549806,0.0010488860382349,-0.0010521710423002,0.0010490097485477,-0.00111077561236,0.001100151636991,-0.0010994030251373,0.0011114685351759,0.72442397458618,1473840,32975,0.0061279761061475,0.0061280097422257,0.0041584005999658,16.973358009556,5.0986864076443e-05,5.0986864076443e-05,5.0986864076443e-05,1625806.5173533,0.016550033864428
18921600,0.99973046064006,0.016733391581989,0.0059097898119901,0.0059098190400561,0.0049137827299429,-0.0014751981805863,0.0014753689760572,-5.6704030802726e-06,5.8294028817103e-06,-1.7067009842816e-07,3.7793288398374e-07,-0.0015452598897404,0.001541434130807,-0.001541457526387,0.0015452285001451,-0.0015451230487945,0.0015415954380027,-0.0015412581471157,0.0015454533218933,-0.0013239409808509,0.0013129159074305,-0.0013125832332412,0.0013242493222491,3.4876751810386e-07,-1.9299311207509e-07,3.1848105149052e-07,-1.0158736691963e-07,-0.0014751989976334,0.0014753845447798,-0.0015431240322588,0.0015436127262485,-0.0015432351122988,0.0015434781521277,-0.0015432607787705,0.0015434308128828,-0.0015434357090129,0.0015432709364789,-0.0013181495594476,0.0013186342038443,-0.001318613848485,0.0013182151689863,-0.001474615596617,0.0014751911461696,-0.0014751868186551,0.0014745651999299,6.0580659967257e-06,-5.4721818698638e-06,-0.00099905445655188,0.00099962704989409,8.8448728667288e-08,5.0459254719511e-07,-0.0010482355171254,0.0010524992211432,-0.0010480684803182,0.0010526317600181,-0.0010520762538051,0.0010486528099029,-0.0010519382146892,0.0010487772364947,-0.0011105141729635,0.001099894670441,-0.0010991478434085,0.0011112045445898,0.72615961192452,1473840,32975,0.0061277417161702,0.0061277753899389,0.0041571533153256,16.871128717014,5.0169029736109e-05,5.0169029736109e-05,5.0169029736109e-05,1622516.7391304,0.016548289855477
19008000,0.99973511557879,0.016733465228826,0.0059098160203352,0.0059098452483979,0.0049138039600928,-0.0014751420900855,0.0014753079344877,-5.6700655644732e-06,5.8238636014463e-06,-1.7372888168309e-07,3.7613911343431e-07,-0.0015451508439425,0.001541321764248,-0.0015413504935077,0.0015451141905017,-0.0015450135388283,0.0015414834734277,-0.0015411506935312,0.0015453393816722,-0.0013239003915619,0.0013128764237324,-0.0013125485213323,0.0013242041238835,3.4814407382962e-07,-1.9490894852105e-07,3.1796979376147e-07,-1.0412439229551e-07,-0.0014751417147398,0.001475324603103,-0.00154301403226,0.001543501097078,-0.0015431255130956,0.0015433658363398,-0.0015431512338528,0.0015433188908854,-0.0015433265603227,0.0015431582407671,-0.0013181106071144,0.0013185938927786,-0.0013185766760796,0.0013181725486735,-0.0014746244325069,0.0014751981692216,-0.0014751966789991,0.0014745706959074,6.05418204123e-06,-5.4700565367339e-06,-0.00099875382295037,0.00099932482925458,8.6690049515964e-08,5.048556781717e-07,-0.0010480041102311,0.0010522634273863,-0.0010478365548848,0.0010523968092524,-0.001051842844895,0.0010484192860094,-0.0010517043633338,0.0010485445993885,-0.0011102527848682,0.0010996384562738,-0.0010988922370747,0.0011109416593917,0.73076841761571,1473840,32975,0.0061274984294846,0.00612753191135,0.0041559052917336,16.768899598076,4.9351196784608e-05,4.9351196784608e-05,4.9351196784608e-05,1619215.3124973,0.016546526788028
19094400,0.9997396718401,0.016733537426031,0.0059098417099,0.0059098709379569,0.0049138247781736,-0.0014753226200687,0.0014755047220586,-5.6613465744408e-06,5.8315843577958e-06,-1.6546200690875e-07,3.84371030696e-07,-0.0015451789984994,0.001541366670105,-0.0015413792259636,0.0015451583329408,-0.0015450422663567,0.0015415281893098,-0.001541179029128,0.0015453836472894,-0.0013241794557935,0.0013131719616469,-0.0013128270815606,0.0013244986999442,3.5161905397336e-07,-1.9132274278454e-07,3.2593227728833e-07,-1.0521437921367e-07,-0.0014753270423779,0.0014755166906049,-0.0015430458137108,0.0015435420593329,-0.0015431601257907,0.0015434042830304,-0.0015431826617323,0.0015433599751843,-0.0015433613279256,0.00154319619103,-0.0013183899325604,0.0013188885547045,-0.0013188657120309,0.0013184591730635,-0.0014749714641177,0.0014755498552955,-0.0014755438550875,0.0014749213067489,6.0536456681136e-06,-5.4694273349058e-06,-0.00099856725469636,0.00099913833285496,8.2082479373657e-08,5.0911940712767e-07,-0.001047961068327,0.0010522171647828,-0.0010477900989823,0.0010523535799036,-0.0010517992008623,0.0010483733985414,-0.0010516580914822,0.0010485017279433,-0.0011101270470863,0.0010995170058786,-0.0010987675853484,0.0011108193552001,0.7318597510005,1473840,32975,0.0061282783413585,0.0061283120247145,0.0041551364547053,16.705415390109,4.8843323120867e-05,4.8843323120867e-05,4.8843323120867e-05,1613380.732614,0.016547332111213
19180800,0.99974421062229,0.016733610203262,0.0059098675842121,0.0059098968122624,0.0049138458067871,-0.0014758069345715,0.001475984167089,-5.6627981543277e-06,5.8282743196236e-06,-1.6644306739769e-07,3.8046517568966e-07,-0.00154565301465,0.0015418372287408,-0.0015418534819088,0.0015456281446639,-0.0015455170905002,0.0015419977573181,-0.0015416543296104,0.0015458525456049,-0.0013246368362403,0.0013136253579472,-0.0013132857549737,0.0013249498350053,3.5477822456225e-07,-1.8525256564206e-07,3.3326559663143e-07,-1.0232565068198e-07,-0.001475804260269,0.001476003445004,-0.0015435133835072,0.0015440200178361,-0.0015436299080345,0.0015438806718213,-0.001543649125489,0.001543838450393,-0.0015438297513381,0.0015436733200498,-0.0013188362210634,0.0013193503097511,-0.0013193166799488,0.0013189168541299,-0.0014754722213426,0.0014760549915402,-0.0014760420519292,0.0014754299017625,6.0556796780272e-06,-5.4658573939779e-06,-0.00099873268231728,0.00099930885249191,8.2253959076453e-08,5.1389052274213e-07,-0.0010482044911286,0.0010524637031412,-0.0010480320837014,0.001052601386039,-0.0010520424176623,0.0010486203319454,-0.0010518991516269,0.0010487499000144,-0.0011103337955815,0.0010997319531066,-0.0010989754175002,0.0011110335145588,0.74043868516282,1473840,32975,0.0061302729646558,0.0061303070911618,0.0041558360697779,16.919378475988,5.0555027807903e-05,5.0555027807903e-05,5.0555027807903e-05,1612289.8233861,0.016552099246304
19267200,0.99974873400314,0.016733682861174,0.0059098934166283,0.0059099226446801,0.0049138667998654,-0.0014767707943598,0.0014769477830916,-5.6664489719755e-06,5.8318204256134e-06,-1.7368307693466e-07,3.8716322503541e-07,-0.0015463471395581,0.0015425239947717,-0.0015425452585055,0.0015463177544211,-0.0015462063446703,0.0015426893285046,-0.0015423418497143,0.0015465467144837,-0.0013257925841074,0.0013147792200923,-0.0013144357194087,0.0013261111944323,3.5553296455186e-07,-1.9845583028457e-07,3.3997760560137e-07,-1.2122434091192e-07,-0.0014767739736625,0.0014769610239128,-0.0015442031966201,0.0015447110717059,-0.0015443279533358,0.0015445627131801,-0.0015443439576707,0.0015445249838497,-0.0015445324923469,0.001544351435592,-0.001319987399675,0.0013205102026271,-0.0013204918461095,0.0013200509625153,-0.0014767066704627,0.0014772817430129,-0.0014772901365837,0.0014766437976603,6.0642912949603e-06,-5.4644993755775e-06,-0.0009990877378641,0.00099967411348617,7.4855176271924e-08,5.3209143456047e-07,-0.0010488203107394,0.0010530835223176,-0.0010486395366163,0.0010532297929283,-0.0010526605529123,0.0010492376178763,-0.0010525087992134,0.0010493755853149,-0.0011107848819478,0.0011001941070466,-0.0010994198126314,0.0011115032948543,0.74173695623217,1473840,32975,0.0061342616609451,0.0061342954066693,0.004157339346593,17.144530087323,5.2356240698581e-05,5.2356240698581e-05,5.2356240698581e-05,1604318.2976128,0.016561738415018
19353600,0.99975324097465,0.016733755278813,0.0059099191658843,0.0059099483939342,0.0049138877189948,-0.0014771760514797,0.0014773580629108,-5.6662756149263e-06,5.8366871120041e-06,-1.7067352379653e-07,3.8911729480667e-07,-0.0015468039479923,0.0015429845719499,-0.0015430004893446,0.0015467799059771,-0.0015466634016689,0.0015431495979744,-0.0015427974174286,0.0015470085218085,-0.0013261190595703,0.0013151058725213,-0.0013147576915804,0.001326442343175,3.5182070217416e-07,-2.0110701340504e-07,3.3832255682403e-07,-1.26052566437e-07,-0.001477184899531,0.0014773655503263,-0.001544664661449,0.0015451669126723,-0.0015447904584112,0.0015450174494636,-0.0015448051485601,0.0015449811790726,-0.0015449946887304,0.0015448065713648,-0.0013203154797696,0.0013208351527431,-0.0013208229381607,0.0013203728553923,-0.0014770842222362,0.0014776506672415,-0.001477666513014,0.0014770139646713,6.0685710776754e-06,-5.46494665114e-06,-0.00099917788560747,0.00099976806237706,7.5179949982986e-08,5.3559947408119e-07,-0.0010489896409598,0.0010532571280961,-0.0010488078534676,0.0010534045013249,-0.0010528314277559,0.001049409630027,-0.001052678632066,0.0010495486926405,-0.0011108914562889,0.0011003009941227,-0.001099521829272,0.0011116147759157,0.74186865092658,1473840,32975,0.0061359491632509,0.0061359827334845,0.0041577232341331,17.370380592956,5.4163044743649e-05,5.4163044743649e-05,5.4163044743649e-05,1604194.0579885,0.016565559504684
19440000,0.999757730337,0.016733827332666,0.0059099447885062,0.0059099740165536,0.0049139085276058,-0.0014775758578215,0.0014777332262066,-5.678893012444e-06,5.8253382435537e-06,-1.8012863538791e-07,3.7500473954965e-07,-0.0015472617164696,0.0015434186758259,-0.0015434587378178,0.001547214654951,-0.001547124226153,0.0015435817045859,-0.0015432569243013,0.0015474410930469,-0.0013264415069831,0.0013154010112213,-0.0013150774336574,0.0013267379939523,3.6180746927479e-07,-1.866426821173e-07,3.5227371483265e-07,-1.1481059239734e-07,-0.0014775625351884,0.0014777679912029,-0.0015451030382058,0.0015456300155991,-0.0015452316894023,0.0015454801292666,-0.0015452407709161,0.0015454450338803,-0.0015454330233863,0.0015452693070215,-0.0013206092844343,0.0013211584970861,-0.0013211214032115,0.00132069449282,-0.0014774192772184,0.0014780055512672,-0.0014779971594451,0.0014773720972183,6.0654962174629e-06,-5.4695200734687e-06,-0.00099930681313435,0.00099988916419679,6.9680839830615e-08,5.3258744631824e-07,-0.0010491741700121,0.0010534336837541,-0.0010489911096923,0.0010535814469367,-0.0010530169561376,0.0010495858495423,-0.0010528632121405,0.0010497256898851,-0.0011110347836728,0.0011004366078313,-0.0010996642565488,0.0011117524217583,0.74105948004189,1473840,32975,0.006137552951103,0.0061375971004512,0.0041582433849396,17.596277917669,5.5970223341353e-05,5.5970223341353e-05,5.5970223341353e-05,1604552.0025554,0.016569359680761
19526400,0.99976220087787,0.016733898934165,0.0059099702538544,0.0059099994819803,0.0049139291983305,-0.0014779687590662,0.00147810000014,-5.691310025913e-06,5.8118072443044e-06,-1.8974721269433e-07,3.5814892334932e-07,-0.001547729771299,0.0015438635664299,-0.0015439274611489,0.0015476592363188,-0.0015475946032176,0.001544024002814,-0.0015437278060667,0.0015478832903471,-0.001326730938038,0.0013156631653834,-0.0013153678711574,0.0013269992601469,3.5960973260164e-07,-1.8176246255795e-07,3.5515009680327e-07,-1.1493224099831e-07,-0.0014779412368356,0.0014781492578259,-0.0015455594540915,0.0015460876139857,-0.0015456891974812,0.0015459365546512,-0.0015456948551407,0.0015459050329355,-0.0015458882340337,0.0015457282268434,-0.0013208808966238,0.001321438338672,-0.0013213960943694,0.0013209713642305,-0.0014777538820309,0.0014783350171828,-0.0014783259902885,0.0014777090483231,6.0612766339203e-06,-5.4727569753036e-06,-0.00099945051122691,0.0010000253990234,6.4466606586891e-08,5.3034764395458e-07,-0.0010493397043382,0.0010535904718713,-0.0010491557242649,0.0010537392184017,-0.0010531822361008,0.0010497429226491,-0.0010530272218777,0.0010498836472012,-0.0011112105536572,0.0011006068130827,-0.00109984121651,0.0011119223583214,0.73953861925143,1473840,32975,0.0061391253667538,0.0061391701244765,0.0041588252573934,17.822178528667,5.7777428229337e-05,5.7777428229337e-05,5.7777428229337e-05,1605449.3472818,0.016573148554384
19612800,0.99976665138519,0.016733970016322,0.0059099955389338,0.0059100247671448,0.0049139497102431,-0.0014783284361292,0.0014784891361347,-5.6762441030054e-06,5.8253446397634e-06,-1.7217031775558e-07,3.6929271943825e-07,-0.0015481916090354,0.0015443575838532,-0.0015443886429609,0.0015481523572555,-0.0015480571591492,0.0015445163753029,-0.0015441915368188,0.0015483748370157,-0.0013269366905536,0.0013158973074016,-0.0013155760304575,0.0013272324554246,3.5888201507386e-07,-1.7561020467464e-07,3.581761211581e-07,-1.1320921370728e-07,-0.0014783102147542,0.0014785233669792,-0.0015460308656104,0.0015465614453017,-0.001546158743798,0.0015464097617007,-0.0015461650747725,0.0015463819751849,-0.001546356941124,0.0015462050271616,-0.0013210963820086,0.0013216616227217,-0.0013216111694681,0.0013211928456562,-0.001478082538019,0.001478661419303,-0.0014786474664121,0.0014780427847981,6.0568012507342e-06,-5.475380663056e-06,-0.00099960337867285,0.0010001713334262,6.0543453636256e-08,5.279076244318e-07,-0.0010494672975489,0.001053709847553,-0.0010492833404228,0.0010538596765948,-0.0010533087157486,0.0010498629633123,-0.0010531534435434,0.0010500044335567,-0.0011114342967862,0.0011008253768078,-0.0011000659435753,0.0011121381132153,0.73751706869028,1473840,32975,0.0061406756119035,0.0061407085082019,0.0041594461599612,18.048079276217,5.9584634209736e-05,5.9584634209736e-05,5.9584634209736e-05,1606829.7220366,0.016576919254239
19699200,0.99977108064909,0.016734040528255,0.0059100206262724,0.0059100498544784,0.0049139700475042,-0.0014786828668085,0.0014788483006082,-5.6733612835553e-06,5.8274324364662e-06,-1.6777810135139e-07,3.6956217718624e-07,-0.0015486394919743,0.0015448118122468,-0.0015448364691234,0.0015486058195761,-0.0015485068614486,0.0015449693001617,-0.0015446404446388,0.0015488269429713,-0.0013271710018504,0.0013161353682945,-0.0013158098600683,0.0013274691364132,3.6106081399508e-07,-1.6927016555541e-07,3.6401468105625e-07,-1.1008080927435e-07,-0.0014786629515464,0.0014788847401531,-0.0015464773507769,0.0015470166530138,-0.0015466074485595,0.0015468641488059,-0.001546609809288,0.0015468379600594,-0.0015468036426834,0.0015466601660782,-0.0013213253395096,0.0013219036069079,-0.0013218436598877,0.0013214327709082,-0.0014783788220064,0.0014789612417188,-0.0014789403003817,0.0014783471514173,6.053307726838e-06,-5.4783402977041e-06,-0.0009997760540748,0.0010003372623736,5.5751139379226e-08,5.2556132546221e-07,-0.0010496279162861,0.0010538627789149,-0.0010494428173113,0.0010540131780472,-0.0010534692137654,0.0010500159779771,-0.0010533129259579,0.0010501580489034,-0.0011116523135145,0.0011010378255112,-0.0011002841676817,0.0011123505186611,0.7351521755129,1473840,32975,0.0061421529636427,0.0061421869255142,0.0041601492393859,18.273979954385,6.1391839635081e-05,6.1391839635081e-05,6.1391839635081e-05,1608339.1795348,0.016580638365115
19785600,0.99977548746306,0.016734110429334,0.0059100455015131,0.0059100747297187,0.0049139901981025,-0.0014790322698634,0.0014791997199787,-5.672298705258e-06,5.828370795833e-06,-1.6431719576583e-07,3.6817045643701e-07,-0.0015490939931476,0.0015452699281295,-0.001545290931534,0.0015490638170622,-0.0015489629188561,0.0015454258257939,-0.0015450964715132,0.001549283270488,-0.0013273812903322,0.0013163462226285,-0.0013160202455527,0.001327679592036,3.6109866586936e-07,-1.6432148908255e-07,3.6642892435724e-07,-1.073593223481e-07,-0.001479010856495,0.0014792376340112,-0.0015469319513679,0.0015474745197899,-0.0015470621688243,0.0015473221641607,-0.0015470626764282,0.0015472973751437,-0.0015472565912036,0.0015471197393603,-0.0013215323477463,0.0013221171125347,-0.0013220506549635,0.0013216467573773,-0.0014786682031788,0.0014792507375582,-0.0014792247729441,0.0014786414673062,6.0511820340513e-06,-5.4804910936146e-06,-0.00099995240204593,0.0010005093202022,5.3620146752499e-08,5.2328611812358e-07,-0.0010497714250741,0.0010540021559173,-0.0010495864024246,0.0010541525111625,-0.0010536128466626,0.0010501553089315,-0.0010534564741025,0.0010502973446047,-0.0011118870700118,0.001101268287636,-0.0011005188260098,0.0011125809694514,0.73254359771327,1473840,32975,0.0061436040143765,0.0061436379275442,0.0041608725381231,18.499880575329,6.3199044602631e-05,6.3199044602631e-05,6.3199044602631e-05,1610112.8750033,0.016584323378651
19872000,0.99977986149694,0.016734179419005,0.0059100700607418,0.0059100992889468,0.004914010069316,-0.0014793089608152,0.0014794735667133,-5.6739611127263e-06,5.827090968593e-06,-1.6342640532994e-07,3.6447423340388e-07,-0.0015494797460305,0.0015456541305073,-0.0015456763532448,0.0015494481244098,-0.0015493500728024,0.0015458085674574,-0.0015454833909771,0.0015496659315895,-0.0013275186665809,0.0013164790296432,-0.0013161575056825,0.001327812317007,3.6034882228104e-07,-1.604659117705e-07,3.6712722758617e-07,-1.049109703333e-07,-0.0014792846033349,0.00147951446915,-0.0015473163198913,0.0015478600713871,-0.0015474463917644,0.0015477082076204,-0.0015474453693584,0.0015476842414892,-0.0015476389504289,0.0015475071987694,-0.0013216656950701,0.0013222535322177,-0.0013221823641088,0.0013217848067985,-0.0014788772360079,0.0014794586937396,-0.0014794290322874,0.0014788540101356,6.0516575274045e-06,-5.4805728733895e-06,-0.0010000780204363,0.0010006352772277,5.4675411539649e-08,5.2257819531729e-07,-0.0010498566678753,0.0010540886249536,-0.0010496723932664,0.0010542383267307,-0.0010536984758156,0.001050241506077,-0.0010535425513496,0.0010503829376884,-0.0011120690287754,0.0011014495710465,-0.001100700246254,0.0011127625248574,0.72847029477522,1473840,32975,0.0061447439884183,0.0061447779935275,0.0041613946917632,18.692240301206,6.4737922409648e-05,6.4737922409648e-05,6.4737922409648e-05,1611951.6056071,0.016587171550852
19958400,0.99978414843678,0.01673424763622,0.0059100943299252,0.0059101235581306,0.0049140297481646,-0.0014791028865208,0.0014792652432456,-5.6743885737135e-06,5.825171138928e-06,-1.6352973074348e-07,3.6210619957202e-07,-0.00154945578621,0.0015456292945387,-0.0015456534575705,0.0015494235841518,-0.0015493265160634,0.0015457829396123,-0.0015454616396129,0.0015496405980403,-0.0013270834297959,0.0013160426902846,-0.0013157256812743,0.0013273756828693,3.4998115589215e-07,-1.6869513297756e-07,3.5354850765401e-07,-1.1080837178266e-07,-0.0014790867427569,0.001479297805253,-0.0015473035024059,0.0015478247109205,-0.0015474293442585,0.0015476752248111,-0.0015474326716858,0.0015476503260155,-0.001547622217058,0.0015474757912683,-0.0013212451639868,0.0013218064292979,-0.0013217526260121,0.0013213444036371,-0.0014785697089319,0.0014791327666011,-0.0014791184008297,0.001478530357816,6.0609504231131e-06,-5.4692058871101e-06,-0.00099984940203526,0.0010004277585876,6.935749596643e-08,5.2964691078329e-07,-0.0010494959671497,0.0010537505702022,-0.0010493141958045,0.0010538978297308,-0.0010533365880822,0.0010499042018199,-0.0010531837782852,0.0010500432381157,-0.0011119155831047,0.0011013166232945,-0.0011005494144125,0.00111262678595,0.73489968331814,1473840,32975,0.0061438866912735,0.0061439204331748,0.0041604884800262,18.685119276506,6.4680954212045e-05,6.4680954212045e-05,6.4680954212045e-05,1614728.0155867,0.016584506182929
20044800,0.99978834794656,0.016734314661086,0.0059101181691988,0.0059101473974027,0.0049140490944844,-0.0014795563312194,0.0014797225132431,-5.6725469061423e-06,5.8271386910861e-06,-1.6222460198759e-07,3.647794177963e-07,-0.001549652038478,0.0015458289433399,-0.0015458497831,0.0015496231597005,-0.001549522586015,0.0015459829276551,-0.0015456575498923,0.0015498409092581,-0.0013277261087223,0.0013166891986325,-0.0013163678583472,0.0013280228352682,3.4998152105389e-07,-1.7008248785232e-07,3.5879180152798e-07,-1.1726448066498e-07,-0.0014795427468611,0.0014797524902862,-0.0015474999323333,0.0015480239207114,-0.001547629394785,0.0015478707590576,-0.0015476294934758,0.001547849343754,-0.0015478229532072,0.0015476707371336,-0.0013218851628522,0.001322456734668,-0.0013224044188174,0.0013219827530813,-0.0014792748883772,0.0014798348755394,-0.0014798254575879,0.0014792300428592,6.0674192119582e-06,-5.4628392747077e-06,-0.00099980105069583,0.0010003923100882,6.9919425506104e-08,5.419822813816e-07,-0.0010496777186622,0.0010539413644573,-0.0010494918670461,0.0010540924641128,-0.0010535184292557,0.001050094980751,-0.0010533617398374,0.0010502379022857,-0.0011119471217971,0.0011013648378084,-0.0011005808395036,0.001112675410751,0.7371117681884,1473840,32975,0.0061457705000171,0.0061458041881191,0.0041603220915157,18.669950497707,6.4559603981657e-05,6.4559603981657e-05,6.4559603981657e-05,1606540.7041032,0.016588168641743
20131200,0.99979246175642,0.016734380544889,0.0059101415973872,0.0059101708255883,0.0049140681219134,-0.0014796930517894,0.0014798588520747,-5.6725031130076e-06,5.8266508514161e-06,-1.6267049947481e-07,3.6481506083671e-07,-0.0015497205919198,0.0015458971006814,-0.0015459183887274,0.0015496911249599,-0.0015495908124654,0.0015460512851379,-0.0015457259681398,0.0015499089295895,-0.0013278963678086,0.0013168598607239,-0.0013165387597677,0.0013281926008306,3.4810984140338e-07,-1.7246345376997e-07,3.5780846509812e-07,-1.2068710674066e-07,-0.0014796814357089,0.0014798868715758,-0.0015475698584734,0.0015480907034939,-0.0015477003216967,0.0015479366183917,-0.0015476996092645,0.0015479158313596,-0.0015478939430627,0.0015477364535771,-0.0013220566486804,0.001322625862187,-0.0013225780503866,0.0013221495061147,-0.0014794910628652,0.0014800461562869,-0.0014800418484456,0.0014794411355408,6.0760115835932e-06,-5.4538043990327e-06,-0.00099964953468804,0.0010002582678267,7.7390059004408e-08,5.5200891083233e-07,-0.0010496178557947,0.0010538979089167,-0.0010494312571488,0.0010540499355943,-0.0010534584561258,0.0010500516181426,-0.0010533008911436,0.0010501954480962,-0.0011118392240996,0.0011012758404045,-0.0011004733146292,0.001112585697685,0.7395244109806,1473840,32975,0.0061463349811119,0.0061463686916934,0.0041597329608655,18.65427907916,6.4434232633277e-05,6.4434232633277e-05,6.4434232633277e-05,1603223.8915044,0.016588717982979
20217600,0.99979649168359,0.016734445332444,0.0059101646299569,0.0059101938581558,0.0049140868443309,-0.0014798203213319,0.0014799846291999,-5.6721873686699e-06,5.824264677751e-06,-1.6337355694517e-07,3.6444405340077e-07,-0.0015497878304748,0.0015459640020634,-0.001545986628128,0.001549756752811,-0.0015496582845657,0.0015461181397697,-0.0015457939037759,0.0015499746830154,-0.0013280467194385,0.0013170104644385,-0.0013166910259416,0.0013283406274021,3.4760156970722e-07,-1.7328306947447e-07,3.5981255299914e-07,-1.2432715596798e-07,-0.0014798087339527,0.0014800127634184,-0.0015476367033926,0.0015481578055973,-0.0015477689064897,0.0015480022383904,-0.0015477662390274,0.0015479829630332,-0.0015479624252181,0.0015478014387308,-0.0013222055234485,0.0013227787624607,-0.0013227328030366,0.0013222963841205,-0.0014796930689234,0.0014802457003014,-0.0014802437053006,0.0014796393590696,6.0709985320266e-06,-5.4559019005944e-06,-0.00099950205733166,0.0010001037872692,7.1124705330544e-08,5.5122749356892e-07,-0.0010495548375529,0.0010538249700563,-0.0010493663010476,0.0010539788112327,-0.0010533946212697,0.0010499801167685,-0.0010532353460973,0.0010501259742051,-0.0011117346147462,0.0011011692504698,-0.0011003709733879,0.0011124746793028,0.7422953005247,1473840,32975,0.0061468580096333,0.0061468920162309,0.0041591097807208,18.638573994341,6.4308591954722e-05,6.4308591954722e-05,6.4308591954722e-05,1599959.535084,0.016589148715472
20304000,0.99980043951326,0.016734509078659,0.0059101872861631,0.0059102165143595,0.0049141052781368,-0.0014799456568981,0.0014801089884865,-5.6717347534387e-06,5.8228059297048e-06,-1.6408378737907e-07,3.6426445291664e-07,-0.0015498489536233,0.0015460246717941,-0.0015460486436943,0.0015498169248796,-0.0015497194420097,0.001546178999132,-0.001545855691783,0.0015500350241297,-0.001328198456144,0.0013171632119965,-0.001316844563782,0.0013284915437567,3.451340437777e-07,-1.7632116672177e-07,3.6012945773162e-07,-1.3017861610825e-07,-0.0014799364276155,0.0014801349275553,-0.001547699674997,0.0015482173296796,-0.0015478337248492,0.0015480596997454,-0.0015478293382798,0.0015480423916369,-0.0015480274704021,0.0015478587335858,-0.0013223578279853,0.0013229312991033,-0.0013228910456539,0.0013224428038304,-0.0014798931904754,0.0014804390284854,-0.0014804443264524,0.0014798318187697,6.0678320144323e-06,-5.457097868848e-06,-0.00099934327033465,0.00099994077126527,6.5958445231509e-08,5.5225152189144e-07,-0.0010494958197762,0.0010537590354387,-0.001049305128998,0.0010539149366037,-0.0010533349741987,0.001049914774988,-0.0010531735395452,0.0010500626814153,-0.0011116134368652,0.0011010480061548,-0.0011002519308663,0.0011123514747303,0.74549162589486,1473840,32975,0.0061473740000517,0.0061474083442456,0.0041584455106822,18.6228666242,6.4182932993596e-05,6.4182932993596e-05,6.4182932993596e-05,1596648.5853182,0.016589523453987
20390400,0.99980430699166,0.016734571558587,0.0059102094920594,0.005910238720256,0.0049141233462712,-0.0014800718766525,0.0014802342117083,-5.6715489666379e-06,5.8216403766425e-06,-1.6574818402775e-07,3.649237223197e-07,-0.0015499084472555,0.0015460828236095,-0.0015461085103918,0.0015498745206867,-0.0015497782459336,0.0015462380185592,-0.0015459147601393,0.0015500934685528,-0.0013283555330335,0.0013173215545052,-0.0013170028713985,0.0013286482456695,3.4608650662095e-07,-1.7766537032546e-07,3.6249773725969e-07,-1.3265974559148e-07,-0.0014800621893719,0.0014802604354295,-0.0015477571357782,0.0015482768174347,-0.001547892721686,0.0015481176457003,-0.0015478876060723,0.0015481011902319,-0.0015480872841722,0.0015479159561807,-0.0013225135894671,0.0013230911015964,-0.0013230518451842,0.0013225981133325,-0.0014800902357167,0.0014806363603174,-0.0014806435696278,0.0014800267866795,6.066948621238e-06,-5.4566676503812e-06,-0.00099917406860803,0.00099977114945693,6.3288313820867e-08,5.5437111789788e-07,-0.0010494369781779,0.0010536979420466,-0.0010492447105787,0.0010538553926657,-0.0010532756729086,0.0010498540077829,-0.001053112765441,0.001050003449729,-0.0011114770519291,0.0011009142922329,-0.0011001171122614,0.0011122165325041,0.74582830706956,1473840,32975,0.0061478935074187,0.0061479274918275,0.0041577460452426,18.607159046956,6.405727237565e-05,6.405727237565e-05,6.405727237565e-05,1593219.1681091,0.016589868907199
20476800,0.9998080958264,0.016734632228429,0.0059102310664238,0.0059102602946172,0.0049141408673879,-0.0014800292104408,0.0014801955511415,-5.6673806588673e-06,5.8220731951788e-06,-1.6397796274713e-07,3.6665170072233e-07,-0.0015498923018801,0.001546071490156,-0.00154609337798,0.0015498623877704,-0.0015497613788168,0.001546226776383,-0.0015458998730408,0.0015500811745733,-0.0013282656480951,0.0013172402579073,-0.0013169176947821,0.0013285634811647,3.4467583704661e-07,-1.7909593019794e-07,3.6112963976586e-07,-1.3419660155734e-07,-0.0014800229180156,0.0014802182523854,-0.0015477447151185,0.0015482621756466,-0.0015478807193709,0.0015481024040686,-0.0015478755510472,0.0015480861577813,-0.0015480753359019,0.0015479012135572,-0.0013224289831067,0.0013230033467703,-0.0013229665795198,0.0013225103967822,-0.0014800311488701,0.0014805734769698,-0.0014805848593931,0.0014799655372658,6.0655136232858e-06,-5.4546216261039e-06,-0.00099894551570373,0.00099954300605361,6.3525924566404e-08,5.5482401889236e-07,-0.0010492591178091,0.0010535191587105,-0.0010490670684426,0.0010536767757915,-0.0010530964729288,0.0010496760744803,-0.0010529334010073,0.0010498254477457,-0.0011112598200912,0.0011007001132184,-0.0010999033173704,0.0011120004891561,0.73927061772902,1473840,32975,0.0061477245129404,0.0061477582352658,0.0041567997019605,18.59145138243,6.3931611059435e-05,6.3931611059435e-05,6.3931611059435e-05,1592379.7733227,0.016588563003526
20563200,0.99981180768738,0.016734690899915,0.0059102519460553,0.0059102811742472,0.0049141577796127,-0.0014796470878549,0.001479811241971,-5.6649276739165e-06,5.8175114889594e-06,-1.6219306886386e-07,3.625830339426e-07,-0.001549761589161,0.0015459428675783,-0.0015459649859801,0.0015497313901147,-0.0015496325924266,0.0015460962020802,-0.0015457734000405,0.001549948234146,-0.0013276217469789,0.0013165992022623,-0.0013162805373846,0.0013279154626079,3.4244850332736e-07,-1.7546592568118e-07,3.5486526347373e-07,-1.2654125809297e-07,-0.0014796390155932,0.0014798357298772,-0.0015476176166002,0.0015481298924263,-0.0015477490561959,0.0015479747631958,-0.0015477465641925,0.0015479558166016,-0.0015479417271035,0.0015477755618478,-0.0013217914186836,0.0013223553756331,-0.0013223154427645,0.0013218764273896,-0.0014794524121597,0.0014799948261851,-0.0014800003898815,0.001479392976931,6.0605444521017e-06,-5.4525484188071e-06,-0.00099864922828433,0.0009992437824975,6.8931909014584e-08,5.4634404762046e-07,-0.0010487972269452,0.0010530565558547,-0.00104860975728,0.0010532096026359,-0.0010526321943888,0.0010492158962649,-0.001052473774545,0.0010493606562503,-0.0011109847662244,0.0011004244728527,-0.0010996352696308,0.0011117180610426,0.72982046341812,1473840,32975,0.006146138584953,0.0061461723220661,0.0041555604529923,18.575743758847,6.3805950070778e-05,6.3805950070778e-05,6.3805950070778e-05,1597264.302664,0.016584077316907
20649600,0.99981543055393,0.016734747344344,0.0059102720497117,0.0059103012779022,0.0049141740167299,-0.0014789858016842,0.0014791508735162,-5.6594820733107e-06,5.8130465360699e-06,-1.5391936245725e-07,3.5507133102276e-07,-0.0015494549758502,0.0015456457006637,-0.0015456616089367,0.001549430900267,-0.001549331145817,0.0015457937692863,-0.0015454752520958,0.0015496424773495,-0.0013266006954573,0.0013155836984554,-0.0013152692574762,0.0013268901405658,3.3796444958171e-07,-1.641007085848e-07,3.49422536702e-07,-1.1430813909945e-07,-0.0014789747579342,0.001479178263756,-0.0015473177724146,0.0015478257569316,-0.0015474434389284,0.0015476764983813,-0.0015474415635635,0.0015476569777453,-0.0015476309580286,0.0015474826177285,-0.0013207756488865,0.0013213343265737,-0.0013212824286719,0.0013208728279998,-0.0014785111916204,0.0014790507694041,-0.0014790437337661,0.0014784646836148,6.0558880442346e-06,-5.4472655930038e-06,-0.0009982535056635,0.00099884863740643,7.7985762879358e-08,5.3776061853688e-07,-0.0010481235553666,0.0010523860116964,-0.0010479419598889,0.0010525331760908,-0.0010519551747684,0.0010485486470378,-0.0010518026115444,0.0010486875575452,-0.001110618482377,0.0011000627378259,-0.0010992789288241,0.0011113466256369,0.71951860507494,1473840,32975,0.0061434039947033,0.006143437589344,0.0041539135183254,18.499601409894,6.3196811279152e-05,6.3196811279152e-05,6.3196811279152e-05,1604833.2840368,0.016576841033517
20736000,0.99981890020488,0.016734801938171,0.0059102914799932,0.005910320708182,0.004914189749996,-0.0014776424823024,0.0014777892327703,-5.6694499079128e-06,5.8047499702413e-06,-1.4638034487435e-07,3.2894782487906e-07,-0.001548517312142,0.0015447001813554,-0.0015447231374734,0.0015484859614149,-0.0015484040933472,0.0015448370191,-0.00154454779828,0.001548686052463,-0.0013248823048656,0.0013138345698546,-0.0013135495614727,0.0013251417142484,3.2415252054853e-07,-1.4430263191178e-07,3.3442850119317e-07,-9.4086504030532e-08,-0.0014776197807477,0.0014778288376849,-0.0015463846513066,0.0015468756894546,-0.0015464991743926,0.0015467380679743,-0.0015464973614407,0.0015467177643286,-0.0015466754322795,0.0015465554280329,-0.0013190508827243,0.0013195911444769,-0.0013195233769497,0.0013191647217199,-0.0014768273086449,0.0014773510600005,-0.0014773264545984,0.0014767989465598,6.0543057925533e-06,-5.4505223623459e-06,-0.00099738032427402,0.00099797033095666,9.2873222892026e-08,5.1750179722309e-07,-0.0010469006298304,0.0010511702544371,-0.0010467308535046,0.0010513056790284,-0.0010507328423792,0.001047332167186,-0.0010505919802011,0.0010474594674263,-0.001109757314753,0.0010991836345042,-0.0010984162983523,0.0011104685755093,0.72668645073476,1473840,32975,0.0061378058755262,0.0061378406232759,0.0041502716589987,18.118301187676,6.0146409501409e-05,6.0146409501409e-05,6.0146409501409e-05,1612974.7156516,0.016561756007997
20822400,0.99982222183751,0.016734854741764,0.0059103102575171,0.0059103394857095,0.004914204998537,-0.0014774373641948,0.0014775870025246,-5.6616978821663e-06,5.7995311357159e-06,-1.4922540851611e-07,3.3496152484742e-07,-0.0015479826907327,0.0015441701787693,-0.0015441934004329,0.0015479518187647,-0.0015478672016613,0.0015443099213908,-0.0015440151407809,0.0015481552448354,-0.001324944418763,0.0013139142286387,-0.0013136246645656,0.0013252106348519,3.2333262379733e-07,-1.5406877929645e-07,3.3813770990319e-07,-1.0802641315716e-07,-0.0014774210509761,0.0014776197535795,-0.0015458531777974,0.0015463421831464,-0.0015459727826388,0.0015461989130458,-0.0015459687370717,0.001546181893575,-0.0015461524083833,0.0015460131676646,-0.0013191211172983,0.0013196664201769,-0.0013196109331732,0.0013192209650781,-0.0014769203255127,0.0014774377106203,-0.001477428865986,0.0014768750614296,6.0438526855783e-06,-5.4478813586236e-06,-0.0009967278397053,0.00099731078018115,8.0801747976064e-08,5.2290006526323e-07,-0.0010465240574739,0.0010507766793651,-0.0010463482743367,0.001050917787869,-0.0010503518837641,0.001046942950716,-0.001050205316324,0.0010470759100136,-0.0011091466399864,0.0010985834363511,-0.0010978181200414,0.0011098558404313,0.73424410057544,1473840,32975,0.0061369604269275,0.0061369942093431,0.0041475569666259,17.724682195713,5.6997457565704e-05,5.6997457565704e-05,5.6997457565704e-05,1601879.9350999,0.016557278187688
20908800,0.99982540284476,0.016734905068478,0.0059103281587122,0.0059103573869025,0.0049142195228629,-0.0014772113509499,0.0014773628563877,-5.6567892579545e-06,5.7946842585592e-06,-1.514226513325e-07,3.3964435961028e-07,-0.0015474609315978,0.0015436527062056,-0.0015436760639713,0.001547431150711,-0.0015473438979038,0.0015437942638679,-0.0015434954040587,0.0015476371202699,-0.0013249495474176,0.0013139300530642,-0.0013136382422831,0.0013252196709698,3.1995271927474e-07,-1.642691323434e-07,3.3981156325859e-07,-1.2536312764515e-07,-0.0014772028843164,0.0014773873862735,-0.0015453366773695,0.0015458186128423,-0.0015454602028271,0.0015456690097971,-0.0015454549882654,0.0015456579604546,-0.001545643102034,0.0015454816432096,-0.0013191343941983,0.0013196809608773,-0.0013196410845456,0.0013192141331774,-0.0014769930193444,0.0014774989382874,-0.0014775068081442,0.0014769272288919,6.062961392386e-06,-5.4177044529355e-06,-0.00099606760790495,0.00099670064891197,9.6770345713688e-08,5.576300202568e-07,-0.0010460746397211,0.0010503662539589,-0.0010458923978405,0.0010505148787918,-0.001049898379207,0.0010465378361631,-0.0010497465232014,0.0010466775144758,-0.0011085469122178,0.0010980501608969,-0.0010972274358522,0.0011093096911028,0.73062466364294,1473840,32975,0.0061360265872734,0.0061360595897651,0.0041449286181046,17.330292769449,5.3842342155588e-05,5.3842342155588e-05,5.3842342155588e-05,1591273.1626587,0.016552708700907
20995200,0.99982845032203,0.016734953116535,0.0059103452519976,0.0059103744801771,0.0049142333843603,-0.0014762445448764,0.0014763927358134,-5.6530342463003e-06,5.7873317270108e-06,-1.5311224183473e-07,3.3751761083892e-07,-0.0015465953885896,0.0015427857213341,-0.0015428123249843,0.0015465621160112,-0.0015464750460782,0.0015429279675757,-0.0015426325803424,0.0015467661056148,-0.0013239090484468,0.0013129014317252,-0.001312613143909,0.0013241748130974,3.0536113206997e-07,-1.7871324284421e-07,3.2232113319684e-07,-1.398897357774e-07,-0.0014762492835964,0.0014764029636393,-0.0015444850272436,0.001544937326352,-0.0015446099011516,0.001544787093485,-0.0015446049574831,0.0015447757695873,-0.001544791488541,0.0015446010581437,-0.001318118259735,0.0013186284012157,-0.0013186169819328,0.0013181625689074,-0.0014759127924732,0.0014763881721165,-0.0014764220772899,0.0014758182483106,6.0867465768732e-06,-5.3842448034327e-06,-0.00099519529870825,0.00099588422362919,1.2619077072943e-07,5.8535854103479e-07,-0.0010451655770564,0.0010495101625854,-0.0010449865248664,0.0010496587881325,-0.0010489871850926,0.001045683711949,-0.0010488346605837,0.0010458239112994,-0.0011076238681079,0.0010971942875056,-0.001096314717847,0.001108442896466,0.72798884977769,1473840,32975,0.0061320165418404,0.0061320472771887,0.0041414220592416,16.93585197305,5.0686815784397e-05,5.0686815784397e-05,5.0686815784397e-05,1592261.2592335,0.016540988243268
21081600,0.99983137094842,0.016734999173642,0.005910361634715,0.0059103908628834,0.0049142466760434,-0.0014753389211646,0.001475490966759,-5.6435473781839e-06,5.7840305975988e-06,-1.5191504730914e-07,3.399982792686e-07,-0.0015457930462991,0.0015419912432746,-0.0015420143732381,0.0015457613452577,-0.0015456745158751,0.0015421336559534,-0.0015418335195565,0.0015459671786845,-0.0013228960746678,0.0013119045569942,-0.0013116087238303,0.0013231663296115,3.1916085588702e-07,-1.66045505236e-07,3.3538427897026e-07,-1.2174929235841e-07,-0.0014753319841897,0.0014755143628001,-0.0015436736926973,0.0015441530796704,-0.0015437975491491,0.0015440059601457,-0.0015437919532097,0.0015439897442319,-0.0015439794548324,0.0015438176971112,-0.001317095408155,0.0013176314010563,-0.0013175953680691,0.0013171762396646,-0.0014749174524917,0.0014754215666298,-0.0014754329617956,0.0014748525329155,6.0466916986314e-06,-5.4113753579643e-06,-0.00099441128264585,0.00099503278644412,9.44158071789e-08,5.4772244847691e-07,-0.0010442937261927,0.0010485694676163,-0.0010441144066808,0.001048714573091,-0.0010481103504336,0.0010447471033198,-0.0010479599884485,0.0010448839709608,-0.0011068409388367,0.001096353900832,-0.0010955455871406,0.0011075932045828,0.72816123921692,1473840,32975,0.0061282747644767,0.0061283085943802,0.0041380271364565,16.541407836101,4.7531262688809e-05,4.7531262688809e-05,4.7531262688809e-05,1592303.5810544,0.016529932456721
21168000,0.99983417100661,0.016735043342099,0.0059103773434863,0.0059104065716544,0.0049142594269583,-0.0014746098218018,0.0014747761957451,-5.6298180591424e-06,5.7845017399553e-06,-1.463413855132e-07,3.4875675064331e-07,-0.001545047719276,0.0015412636642952,-0.001541273581516,0.0015450296051235,-0.0015449281231659,0.0015414071376587,-0.0015410918160143,0.0015452363173098,-0.0013221641862038,0.001311201042836,-0.0013108905273633,0.0013224500959187,3.3010761208353e-07,-1.5806546726889e-07,3.4397818544684e-07,-1.116031444826e-07,-0.0014746006486385,0.0014748018900053,-0.0015429276415481,0.0015434263815238,-0.0015430509388314,0.001543279683282,-0.001543046998362,0.0015432621095265,-0.0015432338209359,0.0015430905006592,-0.0013163702792864,0.0013169227128077,-0.0013168684347838,0.0013164682657904,-0.0014742024262864,0.0014747292371027,-0.0014747204722643,0.0014741568613142,6.0330637935878e-06,-5.411733111457e-06,-0.00099364734661873,0.0009942550949096,8.8512066540565e-08,5.4012069460715e-07,-0.0010435451267236,0.0010478034081264,-0.0010433664089872,0.0010479477776826,-0.0010473572970533,0.00104398526285,-0.0010472074858098,0.0010441215134939,-0.0011060848028042,0.0010955961199319,-0.0010948023765123,0.0011068221956356,0.72838415163968,1473840,32975,0.0061252849741659,0.0061253189327014,0.0041348292640437,16.146963470932,4.4375707767451e-05,4.4375707767451e-05,4.4375707767451e-05,1589471.4366497,0.016520603541186
21254400,0.99983686044818,0.016735085782837,0.0059103924357953,0.0059104216639636,0.0049142716830779,-0.0014739400019335,0.0014740972400026,-5.6309196669311e-06,5.7763295300985e-06,-1.5025030240422e-07,3.4363627754945e-07,-0.0015443611371982,0.0015405707499189,-0.0015405894455879,0.0015443344772639,-0.0015442419976898,0.0015407138016688,-0.0015404081221507,0.0015445407140697,-0.001321496568586,0.0013105306873797,-0.0013102300455865,0.0013217729554533,3.3139945727152e-07,-1.5561614550763e-07,3.4506609304378e-07,-1.0896627675692e-07,-0.0014739243716572,0.0014741293364963,-0.0015422366525812,0.001542738059074,-0.0015423592452877,0.0015425918912727,-0.0015423556230327,0.0015425742136907,-0.0015425416841832,0.001542403139544,-0.0013157002664343,0.0013162552020164,-0.0013161967919492,0.0013158023444768,-0.0014735456833688,0.0014740757241737,-0.0014740623349623,0.0014735042252589,6.0223169722765e-06,-5.4153851675994e-06,-0.00099292217665815,0.00099351568734116,8.215996827066e-08,5.322550158268e-07,-0.0010428359243678,0.0010470781850058,-0.0010426577056383,0.0010472220972696,-0.0010466457936851,0.001043262456847,-0.0010464964716994,0.0010433982257893,-0.0011053702261809,0.0010948737046225,-0.0010940945706413,0.0011060926367641,0.72865281601618,1473840,32975,0.006122492047052,0.0061225258921821,0.0041317913117247,15.776135003383,4.1409080027062e-05,4.1409080027062e-05,4.1409080027062e-05,1586703.4781282,0.016511837262158
21340800,0.99983945780871,0.016735126789171,0.0059104070160809,0.0059104362442491,0.0049142835288413,-0.0014734252392521,0.0014735855544752,-5.6266920770475e-06,5.7752379605425e-06,-1.4931287097684e-07,3.4575551644837e-07,-0.0015438306454259,0.001540044732995,-0.0015400607638891,0.0015438066356779,-0.0015437111838615,0.0015401881842126,-0.0015398790261654,0.0015440133329787,-0.0013209797004384,0.00131002244186,-0.0013097181136828,0.0013212595440519,3.3206628013595e-07,-1.5612639269745e-07,3.4628907007982e-07,-1.0982117558685e-07,-0.0014734110148094,0.0014736162314899,-0.0015417077359658,0.0015422104472545,-0.0015418309758489,0.0015420636247803,-0.0015418271016289,0.0015420461906611,-0.0015420138441303,0.0015418744440788,-0.0013151864139927,0.0013157433032224,-0.0013156851558472,0.0013152887817616,-0.0014730540931296,0.0014735846710415,-0.0014735721036705,0.0014730121281016,6.0171497857086e-06,-5.4152370517139e-06,-0.00099232427543088,0.00099291277347535,7.8575564893958e-08,5.3072387608683e-07,-0.0010422576362598,0.0010464924656534,-0.0010420786880803,0.0010466370726052,-0.0010460656997188,0.001042678531178,-0.0010459156990541,0.0010428149575125,-0.0011047899460869,0.0010942942894309,-0.0010935194584582,0.0011055082504575,0.72896328975551,1473840,32975,0.0061203664591956,0.0061204002766011,0.0041293008453939,15.485953538098,3.9087628304786e-05,3.9087628304786e-05,3.9087628304786e-05,1584188.2408194,0.016504984384277
21427200,0.99984196741566,0.016735166430527,0.0059104211093513,0.0059104503375191,0.0049142949836569,-0.0014729192166915,0.0014730782269898,-5.6241142347354e-06,5.7714794908281e-06,-1.5108551163587e-07,3.462035430048e-07,-0.0015433098204667,0.0015395239841964,-0.0015395420763403,0.0015432836750982,-0.0015431897315782,0.0015396681646979,-0.0015393595797394,0.0015434912254397,-0.0013204701328676,0.0013095185047939,-0.0013092144827268,0.0013207495430974,3.3310362268728e-07,-1.5731723135535e-07,3.4803607510731e-07,-1.1141909349707e-07,-0.0014729043352018,0.0014731095390692,-0.0015411860653555,0.0015416905350257,-0.0015413103591761,0.001541542662955,-0.0015413060854505,0.0015415255656474,-0.001541494007378,0.0015413526855379,-0.0013146779381343,0.0013152376470199,-0.0013151802327922,0.0013147800388474,-0.0014725683081767,0.0014730998180421,-0.0014730889384449,0.0014725251202796,6.0141941654229e-06,-5.4118450916566e-06,-0.00099172889518898,0.00099231783240347,7.7085649326856e-08,5.3257644908235e-07,-0.0010416843026433,0.0010459163584544,-0.00104150419734,0.001046062073894,-0.0010454902489044,0.0010421045861584,-0.0010453391194837,0.0010422421035914,-0.0011042103262437,0.0010937223884728,-0.0010929461271274,0.0011049304277979,0.72931336313616,1473840,32975,0.006118267974097,0.0061183017466775,0.0041268321644792,15.199034749834,3.6792277998672e-05,3.6792277998672e-05,3.6792277998672e-05,1581684.4781191,0.016498208796913
21513600,0.9998443928763,0.016735205119767,0.0059104348540211,0.0059104640821883,0.0049143061835572,-0.0014724075148358,0.0014725775255849,-5.61586326658e-06,5.773888498705e-06,-1.4653981134803e-07,3.5280896330869e-07,-0.001542783276422,0.0015390096636827,-0.0015390174393509,0.0015427676031799,-0.0015426622484685,0.0015391545517732,-0.0015388343276304,0.0015429756458765,-0.0013199551412881,0.0013090209079213,-0.0013087056617244,0.0013202459865974,3.332055829264e-07,-1.5923186057865e-07,3.4741859697319e-07,-1.1320350365214e-07,-0.0014723991100267,0.0014726022548795,-0.0015406659743343,0.0015411695776974,-0.0015407906459619,0.0015410211514766,-0.0015407869137975,0.0015410039094231,-0.0015409748737083,0.0015408306246836,-0.0013141732806781,0.0013147308523487,-0.0013146759735645,0.0013142716341224,-0.0014720841522466,0.0014726153974322,-0.0014726056123399,0.0014720383527712,6.0117123298804e-06,-5.4084740508537e-06,-0.00099113369979509,0.00099172351793142,7.7048584828504e-08,5.3371853692879e-07,-0.0010411109298445,0.0010453414050164,-0.0010409305945565,0.0010454876670299,-0.0010449149412746,0.0010415316150028,-0.0010447634991096,0.0010416696117828,-0.0011036313617687,0.0010931504698554,-0.0010923726344322,0.0011043522496723,0.73640785553678,1473840,32975,0.0061161714384013,0.0061162049909263,0.0041243651647603,14.912320645779,3.4498565166227e-05,3.4498565166227e-05,3.4498565166227e-05,1579175.449287,0.016491438754901
21600000,0.99984673759248,0.016735242240079,0.0059104480469272,0.0059104772750929,0.0049143169180586,-0.0014723146768423,0.0014724973207375,-5.6072240978758e-06,5.7769923374992e-06,-1.4343855199933e-07,3.6295293154938e-07,-0.0015424410292941,0.0015386809609861,-0.0015386784879955,0.0015424366479345,-0.0015423190125728,0.0015388275478313,-0.0015384926883862,0.0015426476998742,-0.0013200469450256,0.0013091305599985,-0.0013088015381184,0.0013203536602841,3.3554330641582e-07,-1.6385264666228e-07,3.5005816630934e-07,-1.1869071273365e-07,-0.0014723137580634,0.0014725146880972,-0.0015403299168528,0.001540834773915,-0.0015404549212022,0.001540683909358,-0.0015404529591205,0.0015406680706501,-0.0015406423313221,0.001540491229013,-0.0013142744183123,0.001314835840256,-0.00131478554062,0.0013143673824622,-0.0014722523370459,0.0014727872844914,-0.0014727805147522,0.0014722009027601,6.0029225425182e-06,-5.4107390867502e-06,-0.00099067409108887,0.00099125397952095,6.8358030519355e-08,5.3260660708401e-07,-0.0010408255528422,0.0010450408731174,-0.0010406419528571,0.0010451903435705,-0.0010446267536,0.0010412346555539,-0.0010444739116658,0.0010413749471799,-0.001103241071614,0.0010927576324101,-0.0010919878187261,0.0011039526681307,0.73089914313408,1473840,32975,0.0061158115783345,0.0061158453842317,0.0041224441034571,14.625618763292,3.2204950106336e-05,3.2204950106336e-05,3.2204950106336e-05,1570169.8126182,0.016488756303547
21686400,0.99984900480118,0.0167352780807,0.0059104607855515,0.0059104900137126,0.004914327281436,-0.0014714460291947,0.0014716010878717,-5.6178528168574e-06,5.761326926695e-06,-1.5228667935282e-07,3.4342497827384e-07,-0.0015417603198545,0.0015379765469141,-0.0015379980434842,0.0015417306681076,-0.0015416407893572,0.0015381201949019,-0.0015378160471777,0.0015419377611299,-0.0013190201278314,0.0013080800715394,-0.0013077803556743,0.0013192950429651,3.3276263007279e-07,-1.5608807175636e-07,3.4767901443282e-07,-1.1004999264831e-07,-0.0014714286868872,0.0014716348291608,-0.0015396377037354,0.0015401419421414,-0.0015397614040172,0.001539994685275,-0.001539757141652,0.0015399775219807,-0.001539944534436,0.001539805236436,-0.0013132334903262,0.0013137930359691,-0.0013137342297463,0.0013133373674183,-0.0014711831549824,0.0014717145037899,-0.0014717024681314,0.0014711414953695,6.0061149290975e-06,-5.4034742560668e-06,-0.00098995560020675,0.00099054477238214,7.8014095071064e-08,5.3179632841421e-07,-0.001040002271969,0.0010442296234512,-0.0010398227255715,0.0010443748126639,-0.0010438027439342,0.0010404234214734,-0.0010436521953369,0.0010405603643157,-0.001102481317141,0.0010920091536156,-0.0010912331954414,0.0011032011946085,0.72971739462743,1473840,32975,0.0061121580262091,0.006112191734706,0.004119477741066,14.338918320855,2.991134656684e-05,2.991134656684e-05,2.991134656684e-05,1573422.3521875,0.016478312196624
21772800,0.99985119758498,0.016735312681039,0.0059104730834888,0.0059105023116492,0.0049143372859006,-0.0014708381727387,0.0014709919753424,-5.6160958100242e-06,5.7582579013277e-06,-1.5072389761105e-07,3.4060868171124e-07,-0.0015411983952937,0.0015374164145957,-0.0015374376793339,0.0015411689793113,-0.0015410802573624,0.0015375586145146,-0.001537257151014,0.0015413745371698,-0.0013183560227789,0.0013074179348372,-0.0013071211440495,0.0013186280902088,3.3141716113495e-07,-1.5305814709193e-07,3.4683612175423e-07,-1.0765830420775e-07,-0.0014708194279631,0.0014710271730155,-0.0015390771171385,0.0015395805067078,-0.0015391998253338,0.0015394342832383,-0.0015391951306404,0.0015394174836912,-0.0015393814770723,0.0015392463027015,-0.0013125706723401,0.0013131299943292,-0.0013130681483047,0.001312677368261,-0.0014705425355778,0.0014710723469523,-0.0014710573259736,0.0014705036050922,6.0035370257386e-06,-5.401221513862e-06,-0.00098933288498249,0.00098992174125767,7.9479546923163e-08,5.3003217849972e-07,-0.0010393528423279,0.0010435793762671,-0.0010391743655418,0.0010437234237283,-0.0010431516955196,0.0010397746883418,-0.0010430022051633,0.0010399105449707,-0.0011018688869157,0.0010914000590086,-0.0010906254115081,0.0011025871708185,0.72844761745102,1473840,32975,0.0061096382499785,0.0061096720702941,0.0041168926794308,14.052217994981,2.7617743959844e-05,2.7617743959844e-05,2.7617743959844e-05,1572513.1874862,0.016470561843298
21859200,0.99985333566859,0.016735346355104,0.0059104850524735,0.0059105142806337,0.0049143470219964,-0.0014704717178305,0.001470623642495,-5.6152789552409e-06,5.7556564938027e-06,-1.5078629752666e-07,3.38747685756e-07,-0.0015408817257147,0.0015370996138221,-0.0015371221865833,0.0015408509822708,-0.0015407642330163,0.0015372411951306,-0.0015369422095278,0.001541056011485,-0.0013179219436626,0.0013069847408035,-0.0013066901922466,0.0013181916666652,3.3074508960396e-07,-1.519347762276e-07,3.4572447395796e-07,-1.0593358607743e-07,-0.0014704517672283,0.0014706600332103,-0.0015387608799294,0.0015392631934232,-0.001538882609467,0.0015391179662247,-0.0015388782669578,0.0015391008211186,-0.0015390637292495,0.0015389305580714,-0.0013121375228142,0.0013126953828999,-0.0013126324594946,0.0013122456975885,-0.0014701454039793,0.0014706748681505,-0.0014706588010166,0.001470107923121,6.0010783504738e-06,-5.4002498608541e-06,-0.00098891264956719,0.00098950001361776,8.0114745346375e-08,5.2782607443021e-07,-0.0010389045478615,0.0010431293981499,-0.0010387269972644,0.001043272512083,-0.0010427022437861,0.0010393258912094,-0.0010425536999138,0.0010394607941423,-0.0011014735505589,0.0010910056161231,-0.0010902335377153,0.0011021896430805,0.72710392207389,1473840,32975,0.0061081168388761,0.0061081506331386,0.0041151457128668,13.887494274763,2.6299954198103e-05,2.6299954198103e-05,2.6299954198103e-05,1572062.184857,0.016465692891095
21945600,0.99985546185313,0.016735379775051,0.0059104969315758,0.0059105261597355,0.0049143566837399,-0.0014707060645047,0.0014708579505315,-5.6153331925507e-06,5.755659526189e-06,-1.5275922434369e-07,3.4068689367131e-07,-0.0015411737457093,0.0015373902979498,-0.0015374142686359,0.0015411417325184,-0.0015410549336561,0.0015375331393792,-0.0015372329683619,0.0015413480634717,-0.0013180627218585,0.0013071267361291,-0.0013068306922239,0.0013183338571037,3.3212166394315e-07,-1.5446380206482e-07,3.4428085570392e-07,-1.0558442594826e-07,-0.0014706866140076,0.0014708937811862,-0.0015390524380443,0.0015395542996882,-0.0015391734944795,0.0015394096732687,-0.0015391711701111,0.0015393907500018,-0.001539355923724,0.001539221000677,-0.0013122806748692,0.0013128345419559,-0.0013127738921047,0.0013123866383704,-0.0014703556534118,0.0014708884890326,-0.0014708730753903,0.0014703174884099,6.0003374510331e-06,-5.4010472923904e-06,-0.00098898865532045,0.0009895744636209,8.0232338197142e-08,5.2613824757163e-07,-0.001038957828241,0.0010431817036377,-0.0010387809586511,0.0010433243362318,-0.0010427555561501,0.0010393782857409,-0.0010426076480664,0.0010395126171232,-0.0011016081205382,0.0010911379392497,-0.0010903680665844,0.0011023223361691,0.72569444182426,1473840,32975,0.0061090871333963,0.006109120803817,0.0041154587087398,14.025212571906,2.740170057525e-05,2.740170057525e-05,2.740170057525e-05,1572659.7527392,0.016467983202304
22032000,0.99985757758469,0.016735412962399,0.0059105087291687,0.0059105379573275,0.0049143662759032,-0.0014709621205137,0.0014711151714266,-5.6148505358401e-06,5.7563350223644e-06,-1.5403276826093e-07,3.431465613556e-07,-0.0015414944357882,0.0015377108424103,-0.0015377348929037,0.0015414623426633,-0.0015413743895827,0.0015378549328605,-0.0015375523637793,0.0015416699215924,-0.0013182194697557,0.0013072857083696,-0.0013069872405853,0.001318493006658,3.3320142380009e-07,-1.5711368030291e-07,3.4256421446998e-07,-1.0541788451181e-07,-0.0014709440263471,0.0014711496446653,-0.0015393735282555,0.0015398744577589,-0.0015394939628459,0.0015397304582342,-0.0015394934895982,0.0015397096650354,-0.0015396776133977,0.0015395405445589,-0.0013124408217715,0.0013129900499395,-0.0013129321969934,0.0013125440164503,-0.0014705840630362,0.0014711196078669,-0.0014711051184859,0.0014705449360094,6.0001453301578e-06,-5.4014404026071e-06,-0.00098908536306624,0.00098967057869076,8.0871502184297e-08,5.2489571602703e-07,-0.001039034763581,0.001043258734439,-0.0010388585291922,0.0010434007528053,-0.0010428325592471,0.001039455260349,-0.0010426852811265,0.0010395889715356,-0.0011017618539263,0.0010912902749956,-0.0010905216085777,0.0011024748630042,0.72422732827704,1473840,32975,0.0061101498251622,0.0061101834933264,0.0041158596265205,14.175196573419,2.860157258735e-05,2.860157258735e-05,2.860157258735e-05,1573382.6232251,0.016470550876227
22118400,0.99985968269357,0.016735445912852,0.0059105204437691,0.0059105496719269,0.004914375797156,-0.0014712181500309,0.001471371858388,-5.6149449128784e-06,5.7570699935626e-06,-1.5492210948171e-07,3.447170166314e-07,-0.0015418169258688,0.0015380329063439,-0.0015380571154029,0.001541784651613,-0.0015416960572303,0.0015381778109465,-0.0015378737685292,0.0015419930828745,-0.001318375394059,0.0013074422340284,-0.0013071422757093,0.0013186503844396,3.3415167436101e-07,-1.5862517816987e-07,3.4180912971495e-07,-1.0520503957434e-07,-0.0014712006213716,0.0014714056832369,-0.0015396958094247,0.001540196635517,-0.0015398158767906,0.0015400529795962,-0.0015398166058022,0.0015400310721697,-0.0015400003961061,0.0015398622800046,-0.0013125981660085,0.0013131450250462,-0.0013130885906307,0.0013126999930328,-0.0014708109743589,0.0014713487023332,-0.0014713344515196,0.001470771575057,6.0008204460147e-06,-5.4016150993963e-06,-0.00098918405985497,0.00098976975473502,8.1573718571068e-08,5.2465717967848e-07,-0.0010391118903259,0.00104333691539,-0.0010389359854967,0.0010434786700794,-0.001042909966575,0.0010395331929097,-0.0010427629922302,0.0010396666098275,-0.00110191783184,0.0010914455673482,-0.0010906766852322,0.0011026310051838,0.72270927782862,1473840,32975,0.0061112113757052,0.0061112448722293,0.0041162709866445,14.325947504252,2.9807580034011e-05,2.9807580034011e-05,2.9807580034011e-05,1574164.2142334,0.016473126670219
22204800,0.99986177691206,0.016735478648334,0.0059105320825741,0.0059105613107305,0.0049143852550295,-0.0014714714514446,0.0014716260877238,-5.6149127876753e-06,5.7579966941116e-06,-1.5521992830321e-07,3.4594267447902e-07,-0.0015421377955888,0.0015383538826979,-0.001538377632159,0.001542105914227,-0.0015420164919871,0.0015384993095305,-0.0015381938189454,0.0015423148467565,-0.001318526247015,0.0013075937295884,-0.0013072923896463,0.0013188026990057,3.3450316560465e-07,-1.5980337851833e-07,3.4137477612154e-07,-1.0552974061329e-07,-0.0014714548418709,0.001471659120314,-0.0015400169060873,0.00154051750467,-0.0015401370462389,0.0015403738691477,-0.0015401381448705,0.0015403513182175,-0.0015403219744189,0.0015401825793266,-0.0013127500892853,0.0013132956666295,-0.0013132404314722,0.0013128506667023,-0.0014710350661492,0.0014715734962236,-0.0014715600020784,0.0014709949389656,6.0018451585514e-06,-5.40148734365e-06,-0.00098928511804504,0.00098987201292719,8.2234404393158e-08,5.2520345961288e-07,-0.0010391891120868,0.0010434157111732,-0.0010390131813345,0.0010435573306757,-0.0010429874960579,0.0010396116318445,-0.0010428405549385,0.0010397449753853,-0.0011020777800499,0.0010916058320032,-0.0010908358853423,0.0011027920544394,0.72174636370611,1473840,32975,0.0061122622089711,0.0061122959679008,0.0041166936110561,14.476749822837,3.1013998582697e-05,3.1013998582697e-05,3.1013998582697e-05,1574986.7334748,0.016475692564084
22291200,0.99986385996798,0.016735511444783,0.0059105437372187,0.0059105729653744,0.0049143947421903,-0.0014717612632947,0.0014719177696244,-5.6146071646268e-06,5.7595597200652e-06,-1.5645774942449e-07,3.4907466085933e-07,-0.0015424731436897,0.0015386892216838,-0.0015387125812957,0.0015424416948184,-0.0015423503940503,0.0015388361106633,-0.001538527327369,0.0015426520766459,-0.0013187346363993,0.0013078042213569,-0.001307499543504,0.0013190144108582,3.3592211937104e-07,-1.6274496672724e-07,3.3978012052411e-07,-1.0544991806378e-07,-0.0014717463355367,0.0014719491086956,-0.0015403525740778,0.0015408525514168,-0.0015404721364154,0.0015407094703497,-0.0015404752595246,0.00154068492926,-0.0015406585121543,0.0015405167399177,-0.0013129617991457,0.0013135027838153,-0.0013134505140854,0.0013130594128225,-0.0014713143464213,0.0014718561158968,-0.0014718435381629,0.0014712732300101,6.0012001654017e-06,-5.40340266881e-06,-0.00098939753495671,0.00098998187377581,8.1804352447126e-08,5.2308436913161e-07,-0.0010392955855887,0.0010435206171754,-0.0010391202363738,0.0010436616801021,-0.0010430943912087,0.0010397161168704,-0.0010429480131026,0.0010398489055514,-0.0011022502522166,0.0010917739673662,-0.0010910071309914,0.0011029614333821,0.72692667698141,1473840,32975,0.0061134660567554,0.0061134997914002,0.0041171560512014,14.62755553944,3.222044431552e-05,3.222044431552e-05,3.222044431552e-05,1575233.1101161,0.016478609842332
22377600,0.99986593159106,0.016735544140579,0.0059105553540536,0.0059105845822084,0.0049144042043171,-0.001472451582323,0.001472610419514,-5.6135581196196e-06,5.7607801747688e-06,-1.5939490027386e-07,3.5466313975587e-07,-0.0015429656315638,0.0015391817135599,-0.0015392055359191,0.0015429334974236,-0.0015428409806667,0.0015393311090087,-0.0015390170227962,0.0015431475758623,-0.0013195566129043,0.0013086291540245,-0.0013083193872511,0.0013198417690536,3.3670072978312e-07,-1.70506071825e-07,3.4087199946752e-07,-1.1283309285139e-07,-0.0014724410936649,0.0014726373038418,-0.0015408454923514,0.0015413438197448,-0.0015409671095559,0.0015411987000553,-0.0015409703091084,0.0015411737936584,-0.0015411567957529,0.0015410024798157,-0.0013137850565598,0.0013143257882262,-0.0013142843133086,0.0013138745452544,-0.0014722146644093,0.0014727561933198,-0.0014727544020346,0.0014721638751019,5.995840310208e-06,-5.4087826268597e-06,-0.00098961610929113,0.00099018992009552,7.2008545993466e-08,5.2165576173226e-07,-0.0010397008868625,0.0010439128179163,-0.0010395220666931,0.0010440565803188,-0.0010434994567009,0.0010401085208643,-0.0010433504990192,0.0010402439216745,-0.0011025507947977,0.0010920657231847,-0.0010913068106064,0.0011032541186433,0.72868186327591,1473840,32975,0.0061163279910504,0.0061163616919112,0.0041180478265194,14.778361515204,3.3426892121631e-05,3.3426892121631e-05,3.3426892121631e-05,1569136.0748201,0.016485335772592
22464000,0.99986799151351,0.016735576716451,0.0059105669269491,0.0059105961551007,0.0049144136344016,-0.0014728969329639,0.0014730559112451,-5.6147431510323e-06,5.7621081939813e-06,-1.6139042765569e-07,3.5666910451674e-07,-0.0015433526967131,0.0015395664170139,-0.0015395915154103,0.0015433195244099,-0.0015432261888257,0.0015397173173424,-0.0015394018957152,0.0015435344377692,-0.0013200237090122,0.0013090964088701,-0.001308785147185,0.0013203103206235,3.3802596470405e-07,-1.73223770281e-07,3.4173653255233e-07,-1.1541129193525e-07,-0.0014728872794704,0.0014730819139955,-0.0015412309343427,0.0015417306948153,-0.0015413541441267,0.0015415838739092,-0.0015413574916148,0.0015415589999519,-0.0015415448191289,0.0015413866525102,-0.0013142525957903,0.001314793291382,-0.0013147535179388,0.0013143381686994,-0.0014727304956581,0.0014732728418285,-0.0014732730297048,0.001472676948997,5.999277552457e-06,-5.4080514209217e-06,-0.00098976198056216,0.00099033987074985,7.2618531055841e-08,5.2573968672286e-07,-0.0010399363293862,0.0010441519709958,-0.0010397568977166,0.0010442970155073,-0.0010437360559901,0.0010403466724817,-0.0010435858144489,0.001040483313272,-0.0011027482048606,0.0010922660881104,-0.0010915018727975,0.0011034568219418,0.73003245122431,1473840,32975,0.0061181716817845,0.0061182052871809,0.0041186649134605,14.929167513315,3.4633340106515e-05,3.4633340106515e-05,3.4633340106515e-05,1566813.7151405,0.01648971159201
22550400,0.99987003947015,0.016735609145823,0.0059105784468012,0.0059106076749508,0.0049144230240713,-0.0014733072531885,0.0014734701616723,-5.6141009315838e-06,5.7654367608769e-06,-1.610635449657e-07,3.6020817261072e-07,-0.0015437286545712,0.0015399441863947,-0.0015399663790573,0.0015436983933406,-0.0015436008555341,0.0015400962792215,-0.0015397759380173,0.0015439140979695,-0.0013204284121335,0.0013095041353506,-0.0013091878597451,0.0013207199130842,3.4403220513599e-07,-1.7034878708497e-07,3.4711509189933e-07,-1.120370333837e-07,-0.001473295187951,0.0014734986248532,-0.0015416026387068,0.0015421130425712,-0.0015417267156279,0.0015419653780016,-0.0015417304089067,0.0015419401962784,-0.0015419182562712,0.0015417673267689,-0.0013146541364483,0.0013152043266316,-0.0013151565111148,0.0013147471912651,-0.0014731927537361,0.001473746052507,-0.001473737578844,0.0014731474277074,6.0035477309021e-06,-5.4064874098401e-06,-0.00098989518535537,0.00099047884638794,7.4549500968389e-08,5.2972156093319e-07,-0.0010401362805038,0.0010443578418271,-0.0010399562527863,0.0010445035143915,-0.0010439369073665,0.0010405515470489,-0.0010437859003826,0.0010406889121633,-0.0011029376630128,0.0010924597804683,-0.0010916890370786,0.0011036527447586,0.73095547030401,1473840,32975,0.0061198782717183,0.0061199119780633,0.0041192325796897,15.079973522236,3.5839788177884e-05,3.5839788177884e-05,3.5839788177884e-05,1565020.3724134,0.016493758566644
22636800,0.99987207119382,0.016735641363489,0.0059105898904219,0.0059106191185704,0.0049144323544963,-0.0014736259460865,0.0014737884556415,-5.6153479379189e-06,5.7662702186036e-06,-1.61906011644e-07,3.6065603264475e-07,-0.0015440322638584,0.0015402462535498,-0.0015402692816965,0.0015440011873909,-0.0015439039961149,0.0015403988040984,-0.0015400784278186,0.001544217290876,-0.0013207260973447,0.0013097998789892,-0.0013094836038647,0.0013210175855701,3.4274712653818e-07,-1.7294957947149e-07,3.4538138354958e-07,-1.1425688951869e-07,-0.0014736156442392,0.0014738151647182,-0.001541907164489,0.0015424142657382,-0.0015420314145135,0.0015422664219227,-0.0015420353785418,0.0015422409654424,-0.0015422233635456,0.0015420679533606,-0.0013149528032737,0.0013154990637029,-0.0013154556167353,0.0013150414661037,-0.0014735501416433,0.0014741006131195,-0.0014740961139645,0.0014735007585116,6.0038968084867e-06,-5.408233286921e-06,-0.00098997018488976,0.00099055245042866,7.3616462363636e-08,5.2926954680321e-07,-0.0010402623157327,0.0010444830257431,-0.001040082159823,0.001044628865794,-0.0010440636530342,0.0010406760278711,-0.0010439124835299,0.0010408135736022,-0.0011030633584882,0.0010925822698117,-0.0010918127188352,0.0011037771766513,0.73195076772294,1473840,32975,0.0061211965654335,0.0061212302909323,0.0041195433454194,15.199972306596,3.6799778452768e-05,3.6799778452768e-05,3.6799778452768e-05,1563619.4674986,0.016496754824983
22723200,0.99987407768306,0.016735673229175,0.0059106012079167,0.0059106304360643,0.0049144415851938,-0.0014738066685874,0.0014739689679024,-5.6141810231553e-06,5.7648700713142e-06,-1.6262246380489e-07,3.6118328499457e-07,-0.0015441955067037,0.0015404097403143,-0.0015404333757973,0.0015441637866838,-0.0015440668315386,0.0015405626985121,-0.0015402420890187,0.0015443803254901,-0.0013208902415512,0.0013099666728973,-0.001309650200786,0.0013211818802736,3.4230778168622e-07,-1.7464167782094e-07,3.4504525204175e-07,-1.1608548089499e-07,-0.0014737973227073,0.0014739947101627,-0.0015420711142069,0.0015425770141135,-0.0015421958740027,0.0015424286790127,-0.0015421997169005,0.0015424033033597,-0.0015423882438733,0.0015422297767237,-0.0013151188433432,0.001315663976596,-0.0013156231628627,0.0013152049022626,-0.0014737668682431,0.0014743159706226,-0.001474314110044,0.0014737148422502,6.0054120810218e-06,-5.4041584609509e-06,-0.00098992793017321,0.00099051573777008,7.562924440188e-08,5.3279235691875e-07,-0.0010402717365458,0.001044496610095,-0.0010400910795964,0.0010446429595635,-0.0010440722268322,0.0010406904650828,-0.0010439205565254,0.0010408285207013,-0.0011030611089722,0.0010925885770475,-0.0010918129231075,0.0011037809575107,0.73302834100971,1473840,32975,0.0061219439159163,0.0061219776190171,0.004119381749682,15.250922577704,3.720738062163e-05,3.720738062163e-05,3.720738062163e-05,1561974.7986994,0.016498110172949
22809600,0.99987605879039,0.016735704743244,0.005910612399242,0.0059106416273887,0.0049144507166132,-0.0014739812195966,0.0014741447376676,-5.6121334057158e-06,5.7640336630525e-06,-1.62761165069e-07,3.6255453008794e-07,-0.0015443506762961,0.0015405666043872,-0.0015405894991684,0.0015443196551772,-0.00154422152276,0.0015407200505595,-0.001540397709953,0.0015445367151488,-0.0013210501422243,0.0013101310861311,-0.001309812858223,0.0013213434777988,3.434960235283e-07,-1.7494912712371e-07,3.4655584731234e-07,-1.1671079652338e-07,-0.0014739720337319,0.0014741703091964,-0.0015422260620426,0.0015427340574697,-0.0015423515369585,0.0015425850225628,-0.0015423551396312,0.0015425598553858,-0.0015425444137037,0.0015423856026576,-0.0013152797421671,0.0013158273511638,-0.0013157862016048,0.0013153661866624,-0.0014739772013664,0.0014745279819317,-0.0014745259709527,0.0014739253491793,6.005809188143e-06,-5.4008810918232e-06,-0.00098988094565962,0.00099047239286248,7.6370959463611e-08,5.3567959131369e-07,-0.0010402773971157,0.0010445042227241,-0.0010400960127832,0.0010446512857869,-0.0010440769293058,0.0010406990373752,-0.0010439245425781,0.0010408378095369,-0.0011030529931073,0.0010925876460858,-0.0010918076154781,0.0011037772150641,0.73419959583932,1473840,32975,0.00612266865311,0.0061227023341109,0.0041191965861675,15.29906984224,3.7592558737919e-05,3.7592558737919e-05,3.7592558737919e-05,1560293.9704252,0.016499395594518
22896000,0.99987801471653,0.016735735126977,0.0059106232047761,0.0059106524329218,0.0049144594892794,-0.0014741566675382,0.0014743188101399,-5.6113844264902e-06,5.7618472146597e-06,-1.6400202721542e-07,3.624633988286e-07,-0.0015445061545815,0.0015407213985269,-0.0015407459002126,0.0015444732653525,-0.0015443766934188,0.0015408751331562,-0.0015405536867413,0.0015446907816725,-0.0013212131251268,0.0013102957803133,-0.0013099785161219,0.0013215054672037,3.4375727216806e-07,-1.7584293772743e-07,3.4720867850603e-07,-1.1802443071776e-07,-0.0014741471597571,0.0014743448231464,-0.0015423809742799,0.001542889373139,-0.0015425070967742,0.0015427397548298,-0.0015425103061501,0.0015427147783502,-0.0015427003381459,0.0015425398518972,-0.0013154431371456,0.0013159916186632,-0.0013159517152844,0.0013155286073404,-0.001474187865952,0.001474738538887,-0.0014747380203993,0.0014741348043715,6.0073637222945e-06,-5.3963873894908e-06,-0.00098983113664747,0.00099042858575858,7.8331024782461e-08,5.3964443610629e-07,-0.0010402817580303,0.0010445129182646,-0.0010400996611903,0.0010446606717375,-0.0010440803393477,0.0010407087928622,-0.001043927327361,0.0010408482323439,-0.0011030397679599,0.0010925838740061,-0.0010917972008126,0.0011037705423715,0.71710087522217,1473840,32975,0.0061233917103833,0.0061234256389584,0.0041190046199015,15.347041984144,3.7976335873151e-05,3.7976335873151e-05,3.7976335873151e-05,1558583.2328594,0.016500670971547
22982400,0.99987994568301,0.01673576532893,0.0059106339404187,0.0059106631685639,0.004914468219948,-0.0014732812429175,0.0014734394678483,-5.6156678247134e-06,5.7623510350055e-06,-1.5848927201263e-07,3.5284079605519e-07,-0.0015442742295841,0.0015404887929071,-0.0015405122151355,0.0015442424199335,-0.0015441495452202,0.0015406376063481,-0.0015403251019532,0.001544454767524,-0.0013197194107092,0.0013087889209053,-0.0013084803173158,0.0013200025668601,3.3774763368699e-07,-1.6671652477234e-07,3.3534798160177e-07,-1.0314539332989e-07,-0.0014732682325393,0.0014734688839444,-0.0015421539477808,0.001542651622188,-0.0015422715078561,0.0015425107757905,-0.0015422785311544,0.0015424820264815,-0.0015424597730318,0.0015423161067177,-0.0013139516516857,0.0013144818735919,-0.0013144338031895,0.0013140453017709,-0.0014727901002068,0.0014733375395153,-0.0014733249193907,0.0014727491349959,6.0169974361825e-06,-5.3915240551745e-06,-0.00098954829779546,0.00099016004461683,9.8706601891037e-08,5.3345800401501e-07,-0.0010394680072245,0.0010437237849206,-0.0010392948092374,0.0010438626926077,-0.0010432681125709,0.0010399179798755,-0.0010431238942478,0.0010400486188391,-0.0011027899008804,0.0010923353093786,-0.0010915430360385,0.0011035265330861,0.72195932673061,1473840,32975,0.0061197620050511,0.0061197957278636,0.0041178483519601,15.395002231179,3.8360017849429e-05,3.8360017849429e-05,3.8360017849429e-05,1574152.7224089,0.01649211256658
23068800,0.99988185191216,0.016735795134517,0.0059106445343344,0.0059106737624788,0.0049144768377041,-0.0014737553868344,0.0014739182238819,-5.6114550425108e-06,5.7627131236349e-06,-1.6160077745212e-07,3.6066985387196e-07,-0.0015445462277897,0.0015407630745487,-0.0015407856444594,0.0015445155007153,-0.0015444180067051,0.0015409155384209,-0.0015405948853173,0.0015447315059912,-0.0013203415505532,0.0013094229282905,-0.0013091063451141,0.0013206331878969,3.4143339167192e-07,-1.7396973470521e-07,3.3789839375795e-07,-1.091647091548e-07,-0.0014737464284869,0.0014739435906773,-0.0015424257728982,0.0015429263304561,-0.0015425459681505,0.0015427826554582,-0.0015425539178667,0.0015427530921712,-0.00154273782569,0.0015425842894757,-0.0013145793691358,0.0013151109980532,-0.0013150698625336,0.0013146657567828,-0.0014734610607612,0.001474013026926,-0.0014740066411243,0.00147341353905,6.0032982700189e-06,-5.4013899081199e-06,-0.00098959990224612,0.000990188314631,8.2924238505435e-08,5.260552668884e-07,-0.0010397153935175,0.0010439438837147,-0.0010395394208694,0.0010440855766515,-0.0010435142415564,0.0010401393701698,-0.0010433672574119,0.0010402727776327,-0.0011028991005148,0.00109242740533,-0.0010916558377939,0.0011036149400403,0.72195154404865,1473840,32975,0.0061217334675936,0.0061217671959122,0.0041180201526541,15.442961677113,3.8743693416905e-05,3.8743693416905e-05,3.8743693416905e-05,1567783.2419921,0.016496296374692
23155200,0.99988373362582,0.01673582456956,0.0059106549961322,0.0059106842242759,0.0049144853491518,-0.0014738980014059,0.0014740610582754,-5.6107786736403e-06,5.7622614687521e-06,-1.6198182316339e-07,3.6126976468707e-07,-0.0015446928594037,0.0015409099744556,-0.0015409326742178,0.0015446620532226,-0.0015445643024117,0.0015410627789613,-0.0015407416032039,0.0015448783678375,-0.0013204473268755,0.0013095303728466,-0.001309213273933,0.0013207395061939,3.4196977574296e-07,-1.744138180421e-07,3.3820161369915e-07,-1.0936773721524e-07,-0.0014738890999542,0.0014740863614462,-0.0015425722611635,0.0015430734082316,-0.0015426926221972,0.0015429295643285,-0.0015427007394401,0.0015428998533191,-0.0015428848063607,0.0015427308856405,-0.0013146858050847,0.0013152176853818,-0.0013151768162438,0.0013147719973597,-0.0014736226453247,0.0014741754637877,-0.0014741691668357,0.0014735750481399,6.002506839034e-06,-5.4010520946189e-06,-0.00098956230422642,0.00099015027534972,8.2439332538773e-08,5.260884164545e-07,-0.0010396998309388,0.0010439273344379,-0.0010395236919896,0.0010440691936673,-0.0010434982882277,0.0010401231857253,-0.0010433511156338,0.0010402567735558,-0.0011029086607691,0.0010924378387854,-0.0010916665164689,0.0011036242439538,0.72217441919174,1473840,32975,0.0061223241548759,0.0061223578694036,0.0041178649011621,15.490921066814,3.9127368534512e-05,3.9127368534512e-05,3.9127368534512e-05,1566763.8710036,0.016497339486707
23241600,0.99988559104516,0.016735853762793,0.0059106653684342,0.0059106945965772,0.0049144937977818,-0.0014740536337423,0.0014742154295458,-5.6107577957861e-06,5.7607442949721e-06,-1.6260390370367e-07,3.6079642584145e-07,-0.0015448427586321,0.0015410592852247,-0.0015410828161787,0.0015448102975508,-0.0015447144448814,0.0015412119637802,-0.0015408916613584,0.0015450268471033,-0.0013205823818541,0.0013096651402424,-0.0013093491994984,0.0013208729758807,3.4301127930539e-07,-1.7349236739527e-07,3.4035339335831e-07,-1.0930754430157e-07,-0.0014740431943103,0.0014742426354132,-0.0015427204040914,0.0015432244662231,-0.0015428415335085,0.001543080049515,-0.0015428485133034,0.0015430507397952,-0.0015430335434867,0.0015428810368571,-0.0013148185000482,0.0013153545460433,-0.0013153119633033,0.0013149070694006,-0.0014738021230079,0.0014743563906854,-0.0014743492868951,0.0014737558412804,6.0020011679486e-06,-5.399982625482e-06,-0.00098952818767728,0.00099011662737665,8.1552352835218e-08,5.2727334151088e-07,-0.0010396965234783,0.0010439232180551,-0.0010395195443392,0.0010440657719606,-0.0010434945365078,0.0010401198216016,-0.0010433466698426,0.0010402540672758,-0.0011029145316028,0.0010924462228824,-0.0010916735483634,0.0011036307971781,0.7255665855882,1473840,32975,0.0061229656109989,0.0061230000804565,0.0041177261081817,15.538880428333,3.9511043426664e-05,3.9511043426664e-05,3.9511043426664e-05,1565505.7745715,0.016498503374831
23328000,0.99988742439072,0.016735882681283,0.0059106756404509,0.0059107048685944,0.0049145021722376,-0.0014744085082576,0.0014745685361033,-5.6098156779943e-06,5.7582121844683e-06,-1.6551178955623e-07,3.6203560135167e-07,-0.0015450792609203,0.0015412942926645,-0.0015413209255617,0.0015450434572373,-0.0015449503023954,0.0015414480251653,-0.0015411281542333,0.0015452620451677,-0.0013209999560661,0.0013100845752781,-0.0013097690144616,0.0013212911395742,3.4440845777538e-07,-1.7618124830952e-07,3.4262973507384e-07,-1.1293849500872e-07,-0.0014743980148752,0.0014745961803545,-0.001542955303145,0.0015434608167187,-0.0015430778353795,0.0015433148626956,-0.0015430844661041,0.0015432862094885,-0.0015432717297971,0.0015431143473875,-0.0013152358447524,0.0013157751779868,-0.0013157366020764,0.001315322437181,-0.0014742924429748,0.0014748482306294,-0.0014748450990168,0.00147424328372,6.0010578817002e-06,-5.3972794400727e-06,-0.00098954451764351,0.00099013487546412,7.9374012081974e-08,5.3086291829677e-07,-0.0010398253265851,0.0010440510976648,-0.0010396459207243,0.0010441954242979,-0.0010436219648206,0.0010402490780417,-0.0010434726972383,0.0010403849759707,-0.001102996402399,0.0010925343004882,-0.0010917586976286,0.0011037163109903,0.72813801213906,1473840,32975,0.0061244304515436,0.0061244657159627,0.0041178024472184,15.58683978272,3.9894718261759e-05,3.9894718261759e-05,3.9894718261759e-05,1561144.2331379,0.016501560652261
23414400,0.99988924046263,0.016735911129363,0.005910685749696,0.0059107149778406,0.004914510401826,-0.0014748069647825,0.0014749643062793,-5.6099805005469e-06,5.7558942702026e-06,-1.6856320324142e-07,3.6232800420495e-07,-0.0015453928524701,0.0015416049788669,-0.0015416349310338,0.0015453527073257,-0.001545263194772,0.0015417596267424,-0.0015414410316613,0.0015455727423513,-0.0013214417722801,0.0013105265385889,-0.0013102120622244,0.0013217314271656,3.4708420207204e-07,-1.7675926000562e-07,3.4671375788881e-07,-1.1430943824623e-07,-0.0014747944180424,0.0014749950370399,-0.0015432650739973,0.0015437758392039,-0.0015433897132424,0.0015436283130882,-0.0015433948422115,0.0015436001356947,-0.0015435844719765,0.001543426476635,-0.0013156740567168,0.0013162203124538,-0.0013161811526786,0.0013157630651169,-0.0014747853715561,0.0014753446368676,-0.0014753424944545,0.0014747370574899,5.9982553109555e-06,-5.3978935766988e-06,-0.00098964024060375,0.0009902270094353,7.4718007734328e-08,5.3150039982018e-07,-0.0010400194356428,0.001044239464287,-0.0010398379310678,0.0010443851951493,-0.0010438154072258,0.0010404380495847,-0.0010436644611709,0.0010405754572352,-0.0011031435530161,0.0010926813853525,-0.0010919078557659,0.0011038617915986,0.72309576146281,1473840,32975,0.0061260739840614,0.0061261113877458,0.0041181960093611,15.691791959177,4.0734335673414e-05,4.0734335673414e-05,4.0734335673414e-05,1557966.2646939,0.016505304841682
23500800,0.99989105252687,0.016735939295926,0.0059106957635111,0.0059107249916615,0.0049145185407538,-0.0014749795213105,0.0014751260882334,-5.6171908232139e-06,5.7523603075472e-06,-1.7281232817222e-07,3.5515161978637e-07,-0.0015457353523241,0.0015419351402094,-0.0015419746627441,0.0015456854085769,-0.0015456050974186,0.0015420896939266,-0.0015417822774471,0.0015459031449022,-0.001321454280016,0.0013105268456007,-0.0013102226077288,0.001321729619211,3.5163173712134e-07,-1.6955187868005e-07,3.5134441760024e-07,-1.0585677205922e-07,-0.0014749550572139,0.0014751677473736,-0.0015435958417855,0.0015441178330141,-0.001543721223603,0.0015439710209832,-0.0015437250639166,0.001543941639374,-0.0015439135134649,0.0015437701633535,-0.0013156730665287,0.0013162284306773,-0.0013161737167471,0.0013157749662024,-0.0014747892074107,0.0014753568827977,-0.0014753423270186,0.0014747540054193,5.9975656642202e-06,-5.4029829740486e-06,-0.0009897998618552,0.00099037984827368,7.333319164995e-08,5.2672897910725e-07,-0.0010401103149589,0.0010443258929666,-0.001039931001816,0.0010444703876998,-0.001043908268286,0.0010405221165017,-0.0010437567772059,0.0010406587633758,-0.0011033079279562,0.0010928366230481,-0.0010920688581434,0.0011040205408725,0.71753904540247,1473840,32975,0.0061267666993438,0.0061268020588924,0.0041188419522829,15.912666205464,4.2501329643708e-05,4.2501329643708e-05,4.2501329643708e-05,1562513.6499969,0.016507366622197
23587200,0.99989286066941,0.016735967635395,0.00591070583299,0.0059107350611448,0.0049145267412603,-0.0014751295555258,0.0014752777700261,-5.6187675794898e-06,5.7553681710659e-06,-1.6840890811097e-07,3.5289199155897e-07,-0.0015461359631567,0.0015423385285709,-0.0015423753736517,0.0015460909942643,-0.0015460080850052,0.0015424906960958,-0.0015421850088346,0.0015463066423705,-0.0013213014339792,0.0013103679549544,-0.0013100663505469,0.0013215780943048,3.4461135099531e-07,-1.6985344559492e-07,3.4207656275873e-07,-1.0592975025024e-07,-0.001475109608117,0.0014753141174001,-0.0015440047762805,0.0015445125957968,-0.0015441252597234,0.0015443686137977,-0.0015441325389738,0.00154433968247,-0.0015443167171044,0.0015441706023602,-0.0013155272943428,0.0013160675554455,-0.0013160187699722,0.0013156215688963,-0.0014747920862917,0.0014753499939368,-0.0014753367113662,0.0014747515886346,6.0012812921484e-06,-5.4034014944937e-06,-0.00098996805649847,0.00099055246000438,8.0435209973548e-08,5.2451189524437e-07,-0.001040073693868,0.0010442978784255,-0.0010398973853269,0.0010444398536039,-0.001043872565151,0.0010404934030263,-0.0010437252374241,0.0010406271078662,-0.0011035767239278,0.0010931014615275,-0.0010923335288362,0.0011042888411609,0.72351651506756,1473840,32975,0.0061273924997357,0.0061274262106512,0.0041195467449637,16.138250921813,4.4306007374503e-05,4.4306007374503e-05,4.4306007374503e-05,1567873.3617461,0.016509352462783
23673600,0.99989466445281,0.016735996132744,0.0059107159530989,0.0059107451812528,0.004914534998392,-0.0014760062749605,0.001476174012763,-5.6112953787229e-06,5.7682942074095e-06,-1.6533541446046e-07,3.7005418636024e-07,-0.0015468026795494,0.0015430197394864,-0.0015430421131056,0.0015467713064061,-0.0015466737235006,0.0015431753181448,-0.0015428450593933,0.0015469941875385,-0.0013223185374626,0.0013113994924563,-0.0013110727755305,0.0013226215743297,3.5618189873145e-07,-1.7220504473003e-07,3.5336299271875e-07,-1.0562751967225e-07,-0.0014759920075298,0.0014762070746103,-0.001544670483741,0.0015451954449533,-0.0015447925980121,0.0015450501788466,-0.0015448005128704,0.001545018607676,-0.0015449904429787,0.0015448438498357,-0.0013165424396828,0.0013171037230207,-0.0013170504584588,0.0013166442440404,-0.0014759080914365,0.0014764884690462,-0.001476472983795,0.0014758730976266,6.0032193357662e-06,-5.4064105470007e-06,-0.00099032790386371,0.00099091201915446,7.469868088625e-08,5.2926892434061e-07,-0.0010406183643319,0.0010448414379494,-0.0010404363936803,0.0010449853725364,-0.0010444187928879,0.001041035212261,-0.0010442685959387,0.0010411719054837,-0.0011040356650474,0.0010935559449746,-0.0010927878302452,0.0011047506522124,0.72932090599485,1473840,32975,0.0061310617517306,0.0061311004160587,0.0041210468823238,16.364129747145,4.6113037977156e-05,4.6113037977156e-05,4.6113037977156e-05,1561187.5921676,0.016518343579549
23760000,0.99989646340527,0.016736024705574,0.0059107260970689,0.0059107553252283,0.004914543283277,-0.0014768382576478,0.001477032443798,-5.6006907505898e-06,5.7834396387559e-06,-1.6099992924948e-07,3.9159761221954e-07,-0.0015474093858312,0.0015436442612443,-0.001543645817203,0.0015473998777786,-0.0015472714651037,0.0015438066944041,-0.0015434448840379,0.0015476263025593,-0.0013233188676967,0.0013124314820128,-0.0013120733317923,0.0013236526877463,3.5077224887938e-07,-1.9484948086964e-07,3.4240082584074e-07,-1.2472987824581e-07,-0.0014768505695123,0.0014770365199192,-0.0015452953179644,0.001545801148668,-0.0015454217919041,0.001545651003767,-0.0015454332478207,0.001545618056407,-0.0015456238972071,0.0015454422532457,-0.0013175731909057,0.0013181041489887,-0.0013180838622509,0.0013176383486592,-0.0014769642519175,0.001477528545867,-0.0014775405015532,0.0014768981987127,6.0075784702806e-06,-5.407167267884e-06,-0.00099067807177609,0.00099126519001835,7.2337861933678e-08,5.3546456344041e-07,-0.0010412126566905,0.0010454366480779,-0.001041030018496,0.0010455849785748,-0.0010450148481255,0.0010416287307827,-0.0010448612235527,0.0010417688130758,-0.0011044481737675,0.0010939713973247,-0.0010931951106705,0.001105169697026,0.73308708527106,1473840,32975,0.0061345599894173,0.0061345936738106,0.0041225130759343,16.590028253967,4.7920226031735e-05,4.7920226031735e-05,4.7920226031735e-05,1555368.8057729,0.016526942467111
23846400,0.99989825705112,0.016736053359284,0.0059107362667516,0.0059107654949096,0.0049145515976229,-0.0014774948472911,0.0014776958327396,-5.5989540560025e-06,5.7893367611128e-06,-1.6272932354747e-07,3.9956757824686e-07,-0.0015479750810747,0.0015442124740525,-0.0015442099402239,0.001547968383527,-0.001547835210213,0.0015443784904687,-0.001544006091785,0.0015481992227699,-0.0013240220935141,0.0013131410571137,-0.0013127721560303,0.0013243676154789,3.6299435654785e-07,-1.9222994641771e-07,3.5626035196868e-07,-1.2112875977031e-07,-0.0014775029949144,0.0014777054418156,-0.001545851064261,0.0015463804061638,-0.001545981082685,0.0015462272953919,-0.0015459917012954,0.0015461938472258,-0.0015461868179543,0.0015460145173658,-0.0013182669706638,0.0013188222749636,-0.0013187903041734,0.0013183485097525,-0.0014777252302639,0.0014783093492504,-0.0014783144835276,0.0014776722919032,6.0076292625813e-06,-5.411166616222e-06,-0.00099096640530088,0.0009915498214886,6.5136257169408e-08,5.382829703014e-07,-0.0010416196924078,0.0010458387740016,-0.00104143263932,0.0010459891963405,-0.0010454231758463,0.0010420292516354,-0.0010452661158994,0.0010421720727107,-0.0011047936067217,0.0010943121815396,-0.0010935380845722,0.001105514944502,0.73721899107784,1473840,32975,0.0061372918097249,0.0061373283276536,0.0041237065389258,16.815927909131,4.9727423273046e-05,4.9727423273046e-05,4.9727423273046e-05,1552121.917092,0.016533713356775
23932800,0.99990004491322,0.016736082106831,0.0059107464663692,0.0059107756945312,0.004914559945931,-0.0014781495055676,0.0014783284035384,-5.6132212640893e-06,5.7805030794628e-06,-1.7441313567703e-07,3.8979449513325e-07,-0.0015485313596343,0.001544743845246,-0.0015447643588605,0.0015485027901515,-0.001548389418395,0.0015449103100675,-0.0015445597939393,0.0015487328174897,-0.0013247338657416,0.001313825941982,-0.0013134794281744,0.0013250555627697,3.553196124915e-07,-2.0202893598264e-07,3.4811763529029e-07,-1.332678811929e-07,-0.0014781555478477,0.0014783387916752,-0.0015464032537918,0.001546915172799,-0.0015465346659724,0.0015467600724729,-0.0015465451327273,0.0015467279476859,-0.0015467402933913,0.0015465476531768,-0.0013189741800039,0.001319511732206,-0.0013194981993877,0.0013190325648605,-0.0014784737475463,0.0014790414619498,-0.001479060430727,0.0014784004165196,6.0147639138935e-06,-5.4096474385982e-06,-0.00099122405205219,0.00099181574729708,6.7538908947663e-08,5.4492692854771e-07,-0.0010420317599236,0.0010462587163243,-0.0010418443922746,0.0010464118030493,-0.0010458372129656,0.0010424476240106,-0.0010456788410806,0.0010425924154027,-0.0011050961822089,0.0010946197650695,-0.0010938335036374,0.0011058266232692,0.74194603527398,1473840,32975,0.0061399556492125,0.0061399894215869,0.0041247974301026,17.041827499335,5.1534619994677e-05,5.1534619994677e-05,5.1534619994677e-05,1549052.9083167,0.016540236165758
24019200,0.99990182651364,0.016736110755736,0.0059107566319669,0.0059107858601282,0.0049145682636413,-0.0014787906124874,0.001478969097881,-5.6153248355967e-06,5.7821887441233e-06,-1.7608835302361e-07,3.9109344121424e-07,-0.0015490790080935,0.0015452888509274,-0.0015453107910339,0.0015490490496301,-0.0015489361268098,0.001545456284096,-0.0015451052302905,0.001549280105282,-0.0013254269673878,0.0013145158221023,-0.001314168712395,0.0013257492599541,3.5640727292736e-07,-2.0392408966466e-07,3.5013342892576e-07,-1.3605444025773e-07,-0.0014787968412931,0.0014789793041468,-0.0015469487025588,0.0015474623815618,-0.0015470816658778,0.0015473057104568,-0.0015470915322631,0.0015472742059328,-0.0015472882899603,0.0015470922740428,-0.0013196642677139,0.0013202048537302,-0.0013201930470899,0.0013197209074879,-0.0014792103744431,0.0014797787441019,-0.001479800095167,0.0014791345822296,6.0167493966604e-06,-5.4114752835899e-06,-0.00099147520207454,0.0009920670705516,6.5239409988924e-08,5.4741928579517e-07,-0.0010424359628447,0.0010466627739071,-0.001042247003474,0.0010468174637758,-0.0010462427055427,0.0010428504216592,-0.0010460827418607,0.0010429968008252,-0.001105387773731,0.0010949093565489,-0.001094121317273,0.0011061200287888,0.74196752703961,1473840,32975,0.0061426081486606,0.006142641930236,0.0041258447044717,17.267728229389,5.334182583511e-05,5.334182583511e-05,5.334182583511e-05,1545825.666479,0.016546694482226
24105600,0.99990360137391,0.016736138910448,0.0059107666309018,0.0059107958590623,0.0049145764204842,-0.0014791685207127,0.0014793507376202,-5.6154127972191e-06,5.7859222429839e-06,-1.7716141826959e-07,3.9615655136458e-07,-0.0015495211144985,0.0015457311880416,-0.0015457513337535,0.001549492453714,-0.0015493762236242,0.0015459007602168,-0.0015455435938617,0.0015497255332445,-0.0013257247450457,0.0013148156645255,-0.0013144620853514,0.0013260517967009,3.6343441136651e-07,-2.0300908513039e-07,3.5352400676588e-07,-1.312236326148e-07,-0.0014791724992538,0.0014793631391003,-0.0015473856572392,0.0015479096767861,-0.001547518728288,0.0015477534439863,-0.0015475303784547,0.0015477185847243,-0.001547727009964,0.0015475376937849,-0.0013199599970128,0.0013205041750237,-0.001320487574631,0.0013200233440555,-0.0014795388902821,0.0014801205901586,-0.0014801341651379,0.0014794712934807,6.0202868242372e-06,-5.4118132022524e-06,-0.00099162823970539,0.00099222298658848,6.7210866630836e-08,5.4799128149986e-07,-0.0010426281199401,0.0010468595012163,-0.0010424394062607,0.0010470136894842,-0.0010464362072341,0.0010430459945315,-0.0010462766915408,0.0010431917914702,-0.0011055557106468,0.0010950764413754,-0.0010942850849125,0.0011062906080554,0.73198308660999,1473840,32975,0.0061441801176163,0.0061442137852625,0.0041264867632412,17.493630201578,5.5149041612622e-05,5.5149041612622e-05,5.5149041612622e-05,1546566.8521719,0.016550542890486
24192000,0.99990536353518,0.01673616690454,0.0059107765716406,0.0059108057998,0.0049145845330998,-0.0014789970387859,0.0014791719748116,-5.6170241471874e-06,5.7802319749102e-06,-1.7344970323513e-07,3.8460949841567e-07,-0.0015497067674829,0.001545916083103,-0.0015459381869636,0.0015496762887352,-0.001549566341487,0.0015460807349155,-0.0015457358070751,0.001549903827735,-0.0013252007723775,0.0013142836536348,-0.0013139430116455,0.0013255152958076,3.5492783574426e-07,-1.9624689845368e-07,3.4776619657573e-07,-1.2726136775378e-07,-0.0014789982788753,0.001479187126626,-0.0015475762012789,0.0015480902517805,-0.0015477062073546,0.001547936849533,-0.0015477164240193,0.001547904505435,-0.0015479093018373,0.0015477269270087,-0.0013194351487785,0.0013199727670066,-0.0013199517396213,0.0013195012983076,-0.0014790854497691,0.0014796528740356,-0.0014796651754908,0.0014790199923581,6.0157785462013e-06,-5.4122778351301e-06,-0.00099162730307301,0.00099221690880548,6.9655818833225e-08,5.4073559123904e-07,-0.0010423758056453,0.0010466034902956,-0.001042190590258,0.0010467546469909,-0.001046182162911,0.0010427913125351,-0.0010460256479467,0.0010429339005098,-0.0011055712124163,0.0010950875422538,-0.001094304304721,0.0011062972629681,0.73305378727965,1473840,32975,0.0061434564978172,0.0061434901921284,0.0041264661419953,17.669981293655,5.6559850349234e-05,5.6559850349234e-05,5.6559850349234e-05,1554997.4241198,0.016549048589972
24278400,0.99990710268181,0.016736194574706,0.005910786396158,0.0059108156243178,0.0049145925542307,-0.0014792663746185,0.0014794437808216,-5.6173578854568e-06,5.7830503780633e-06,-1.7501844521114e-07,3.8908128275687e-07,-0.0015499525623375,0.0015461613296729,-0.0015461833053271,0.0015499223736984,-0.001549810730167,0.0015463278136329,-0.0015459786520902,0.0015501524665978,-0.0013254492551025,0.001314533040412,-0.0013141877866701,0.0013257689300802,3.580468778353e-07,-1.9914493447473e-07,3.4838255806517e-07,-1.2780938997002e-07,-0.001479268804615,0.001479457743642,-0.0015478205095918,0.0015483364366093,-0.0015479502321171,0.001548183135453,-0.0015479622252377,0.0015481490517305,-0.0015481558191033,0.0015479705941157,-0.0013196848568273,0.0013202225069146,-0.0013202040685941,0.001319749280972,-0.0014794033887594,0.0014799778039098,-0.0014799898209152,0.0014793372472388,6.0177197771429e-06,-5.4134485733949e-06,-0.0009916659897517,0.00099225672722414,6.9542482407545e-08,5.4174033147274e-07,-0.0010424626946776,0.0010466926431385,-0.0010422769071127,0.0010468440110781,-0.0010462703913103,0.0010428794146719,-0.0010461137332782,0.001043022452022,-0.0011056729571995,0.0010951875387337,-0.0010944034848729,0.0011064007902774,0.7342669704005,1473840,32975,0.0061445763828535,0.006144610076837,0.0041266317101528,17.754573295047,5.7236586360378e-05,5.7236586360378e-05,5.7236586360378e-05,1553272.9314064,0.016551494053911
24364800,0.99990881853645,0.016736221926799,0.0059107961064531,0.0059108253346117,0.0049146004857338,-0.0014795279001586,0.0014797076304693,-5.6176906479672e-06,5.7857629483001e-06,-1.769862070437e-07,3.9330741140607e-07,-0.0015501837142747,0.0015463917488125,-0.0015464134716283,0.0015501539214562,-0.0015500397958298,0.001546560248344,-0.001546206902683,0.0015503860119657,-0.0013257053042022,0.0013147906218786,-0.0013144412361718,0.0013260297178397,3.5844797956674e-07,-2.049700638468e-07,3.461446550591e-07,-1.3105905845224e-07,-0.0014795342328452,0.0014797177104072,-0.0015480529149822,0.0015485656954126,-0.0015481829493558,0.0015484120086138,-0.0015481967704942,0.0015483764495626,-0.0015483905884408,0.0015481975363381,-0.0013199451750065,0.0013204766872373,-0.0013204652182173,0.0013200018396215,-0.0014797140731725,0.0014802892660169,-0.0014803065829405,0.0014796422009324,6.0194997916854e-06,-5.4147104926207e-06,-0.00099169816483636,0.00099228950964086,6.9424986548845e-08,5.4262787540612e-07,-0.0010425532251584,0.0010467844873599,-0.0010423672316334,0.0010469361816765,-0.0010463619477231,0.001042970158168,-0.0010462049521463,0.0010431135577818,-0.0011057565069442,0.0010952688850916,-0.0010944842023977,0.0011064852288548,0.73564461458175,1473840,32975,0.0061456635570292,0.0061456972918247,0.0041267691003317,17.835432698789,5.7883461590307e-05,5.7883461590307e-05,5.7883461590307e-05,1551457.9971431,0.016553844427258
24451200,0.99991051121972,0.016736248844276,0.0059108056638012,0.005910834891959,0.0049146082885155,-0.0014797897581815,0.0014799718613957,-5.6176641201651e-06,5.7879593756904e-06,-1.7883767178346e-07,3.9785517936038e-07,-0.0015504142577716,0.0015466218173729,-0.0015466433126165,0.0015503845068042,-0.0015502684266693,0.001546792459601,-0.0015464344563031,0.0015506188819334,-0.0013259674386083,0.0013150547484247,-0.0013147006711209,0.0013262959328598,3.617100318952e-07,-2.0810410868614e-07,3.4744376290942e-07,-1.3217216258116e-07,-0.00147979716707,0.0014799808581137,-0.0015482815526784,0.001548797576412,-0.001548412355173,0.0015486431932688,-0.0015484272648582,0.0015486058690488,-0.0015486221113204,0.001548426223741,-0.00132020790184,0.0013207395699383,-0.0013207307240687,0.0013202628393764,-0.0014800232952674,0.0014806039480534,-0.0014806220376597,0.0014799503867863,6.0206529080027e-06,-5.4157288029859e-06,-0.00099172670375251,0.00099231813916766,6.8193273262782e-08,5.4378172142003e-07,-0.0010426424552512,0.0010468737681432,-0.0010424555001009,0.0010470262348359,-0.0010464519811705,0.0010430588316009,-0.0010462942395749,0.0010432030256746,-0.0011058296191689,0.001095340871074,-0.0010945549700678,0.0011065591186994,0.73385833814325,1473840,32975,0.0061467521645267,0.0061467858842386,0.0041268903473098,17.916058697213,5.8528469577703e-05,5.8528469577703e-05,5.8528469577703e-05,1549605.3632426,0.016556181275638
24537600,0.99991218087838,0.016736275534197,0.005910815137085,0.0059108443652413,0.0049146160318702,-0.0014798742460752,0.0014800539001724,-5.6188098093673e-06,5.7865803106246e-06,-1.797046010106e-07,3.9601413560539e-07,-0.0015505681327264,0.0015467734915247,-0.0015467968315938,0.001550536256848,-0.0015504222105,0.0015469439003337,-0.0015465884150188,0.0015507699463425,-0.0013259705372575,0.0013150558624464,-0.001314704548114,0.0013262958337998,3.6156834847107e-07,-2.0733597763787e-07,3.4763472017145e-07,-1.3159542465114e-07,-0.001479879973712,0.0014800644782292,-0.0015484337427906,0.0015489509382616,-0.001548565280387,0.001548796306183,-0.0015485793551341,0.0015487589860307,-0.0015487741107665,0.0015485798374179,-0.0013202094104848,0.0013207412178089,-0.0013207309800962,0.0013202651657578,-0.0014800562502119,0.0014806360631045,-0.0014806537452513,0.0014799845009777,6.0202565605867e-06,-5.4160063994624e-06,-0.00099170680278157,0.000992297361587,6.7965743944382e-08,5.432541516304e-07,-0.0010426085572442,0.0010468387670497,-0.0010424218990365,0.001046991268802,-0.001046418009331,0.0010430238845153,-0.0010462599579151,0.001043167900399,-0.0011058328549976,0.0010953434845114,-0.0010945580779963,0.0011065612937889,0.73763294531807,1473840,32975,0.0061470968988231,0.0061471304126135,0.0041268059611322,17.996668813339,5.9173350506707e-05,5.9173350506707e-05,5.9173350506707e-05,1550550.8348246,0.016556795803734
24624000,0.99991382766259,0.016736302019242,0.0059108245340962,0.0059108537622515,0.0049146237228943,-0.0014802706630311,0.0014804502453904,-5.621553234158e-06,5.789216411275e-06,-1.8365837589082e-07,4.003254415315e-07,-0.001550864869145,0.0015470661789362,-0.0015470924910341,0.0015508300434554,-0.0015507173835511,0.0015472390878833,-0.0015468806917142,0.0015510671900665,-0.0013264160543266,0.0013154973725582,-0.0013151430798013,0.0013267442089741,3.646950258287e-07,-2.1248337719877e-07,3.4966312323163e-07,-1.3559253338321e-07,-0.0014802775052011,0.0014804601694602,-0.0015487273033913,0.0015492467634192,-0.0015488597105138,0.0015490907534163,-0.0015488749276277,0.0015490521441171,-0.0015490720667056,0.0015488706431368,-0.0013206525716738,0.0013211862278828,-0.0013211818576033,0.0013207041523447,-0.0014805760596557,0.0014811608929023,-0.0014811830132403,0.0014805003465559,6.0223004431854e-06,-5.4190955636783e-06,-0.0009917764698972,0.00099236643721773,6.4587640712999e-08,5.4574708542724e-07,-0.0010427790527061,0.0010470088402391,-0.0010425897898919,0.0010471631214897,-0.0010465903546815,0.0010431924859572,-0.0010464312077394,0.0010433385785675,-0.0011059734344681,0.0010954798977693,-0.0010946937126431,0.0011067027913866,0.74212144734199,1473840,32975,0.0061487372578922,0.0061487717226427,0.004127098448352,18.077277717924,5.9818221743393e-05,5.9818221743393e-05,5.9818221743393e-05,1546608.02305,0.016560430029886
24710400,0.99991545172439,0.016736328134406,0.005910833800347,0.0059108630285009,0.004914631305558,-0.0014806529954322,0.0014808540701122,-5.6127036132011e-06,5.801952428275e-06,-1.774113536035e-07,4.1519728235425e-07,-0.0015511334713656,0.0015473527540928,-0.0015473600872446,0.0015511175356377,-0.0015509836429533,0.0015475281412921,-0.0015471453148255,0.0015513577729351,-0.001326869058461,0.0013159705146978,-0.0013155913282086,0.0013272214039106,3.6707568659223e-07,-2.1870539612063e-07,3.5253237979452e-07,-1.4182518303695e-07,-0.0014806724587825,0.0014808514997554,-0.0015490036758182,0.0015495248434338,-0.0015491387642761,0.0015493664222462,-0.0015491540981526,0.0015493281560127,-0.0015493545542389,0.0015491431490864,-0.0013211134535897,0.0013216509909703,-0.0013216531154159,0.0013211591918404,-0.0014810872610655,0.0014816749030002,-0.0014817044567878,0.0014810050789519,6.0233616221902e-06,-5.4219667861723e-06,-0.00099183372790309,0.000992421786446,5.8950250322582e-08,5.4919663156898e-07,-0.0010429740882041,0.001047200351633,-0.0010427815786103,0.001047357489313,-0.0010467865728324,0.0010433824660836,-0.0010466245326041,0.0010435317019036,-0.0011060793961795,0.0010955834932735,-0.0010947960729245,0.0011068102980987,0.74194857859167,1473840,32975,0.006150363722239,0.0061503984488626,0.0041273367969315,18.157886920045,6.0463095360356e-05,6.0463095360356e-05,6.0463095360356e-05,1542544.0242273,0.016563980376769
24796800,0.99991705321757,0.016736353044614,0.0059108426566023,0.0059108718847544,0.0049146385032574,-0.001480784123926,0.0014809747008197,-5.6177996563545e-06,5.7966573560913e-06,-1.8252257039716e-07,4.0970917166182e-07,-0.0015512971784726,0.0015475052483986,-0.001547523236666,0.0015512709102893,-0.0015511461807453,0.001547680962279,-0.0015473092893077,0.0015515103906408,-0.0013269539568194,0.0013160464658595,-0.0013156785824292,0.0013272962450753,3.6492550268838e-07,-2.2046656090071e-07,3.5070020585115e-07,-1.4437795118755e-07,-0.0014808002692654,0.0014809749958033,-0.0015491639828606,0.0015496814367376,-0.001549300007261,0.0015495219161878,-0.0015493149440236,0.0015494847161447,-0.001549514915192,0.0015492998371774,-0.001321196218826,0.0013217293033867,-0.0013217341070147,0.0013212368106172,-0.0014811854504709,0.001481767442872,-0.0014818002270624,0.0014810988483704,6.0266144203426e-06,-5.4186691633891e-06,-0.00099179069385958,0.00099238510787001,6.2023489854048e-08,5.5309751090541e-07,-0.0010429756946331,0.0010472077327659,-0.001042783704125,0.0010473653810976,-0.0010467881296029,0.0010433896836808,-0.0010466251306513,0.0010435390686264,-0.0011060444943026,0.0010955552603135,-0.0010947613358207,0.0011067823876956,0.71782212689502,1473840,32975,0.0061508844813437,0.0061509182727992,0.0041271722355481,18.238496597092,6.1107972776732e-05,6.1107972776732e-05,6.1107972776732e-05,1542577.4767082,0.016564870814806
24883200,0.99991863229744,0.016736377687152,0.00591085141537,0.005910880643521,0.0049146456282612,-0.0014796692953422,0.0014798409170395,-5.6208692479558e-06,5.7809119249707e-06,-1.703690914981e-07,3.7835561914399e-07,-0.0015510250521195,0.0015472326562471,-0.0015472552708189,0.0015509943250984,-0.0015508881368817,0.001547393991378,-0.0015470558375272,0.0015512191346955,-0.0013250210990595,0.0013140930800572,-0.0013137589126865,0.001325330334214,3.4960140783446e-07,-1.9224959399722e-07,3.3962983691964e-07,-1.2086643594142e-07,-0.0014796697133741,0.0014798569170113,-0.0015488984426448,0.0015494023194854,-0.0015490230599029,0.0015492541404618,-0.0015490352788248,0.001549220213617,-0.0015492235731592,0.001549046950055,-0.0013192569649247,0.0013197828892902,-0.0013197605221402,0.0013193245719447,-0.0014793863399537,0.0014799495473849,-0.0014799576557751,0.0014793242283009,6.0185347476572e-06,-5.4140334590885e-06,-0.00099153881779325,0.00099212984021394,7.7568796404044e-08,5.3411539284726e-07,-0.0010419797320944,0.0010462156274616,-0.0010417993191464,0.001046361804518,-0.001045787864415,0.001042401843802,-0.001045636431775,0.0010425397472524,-0.0011058350219002,0.0010953432756096,-0.0010945646422783,0.0011065579443624,0.72017119117701,1473840,32975,0.0061462340266821,0.0061462677729913,0.0041261027541604,18.31910579469,6.1752846357516e-05,6.1752846357516e-05,6.1752846357516e-05,1563729.4153138,0.016554323385388
24969600,0.99992019612403,0.016736402152421,0.005910860108818,0.0059108893369684,0.0049146527066346,-0.0014801932446297,0.0014803703859465,-5.6192538602397e-06,5.78481851444e-06,-1.7556967083812e-07,3.8968719339184e-07,-0.0015514550429694,0.0015476623645901,-0.0015476848994388,0.0015514235047142,-0.0015513143214041,0.00154782930689,-0.0015474791703831,0.0015516548321134,-0.0013255956591534,0.0013146749194927,-0.0013143278267121,0.0013259146381165,3.6030818303028e-07,-1.981531597239e-07,3.4442949742119e-07,-1.1976643943291e-07,-0.0014801937773828,0.0014803867796813,-0.0015493215666763,0.0015498385322976,-0.001549447393463,0.0015496899347441,-0.0015494630466021,0.0015496497588333,-0.0015496537982752,0.0015494757179125,-0.0013198321473937,0.0013203615629123,-0.0013203421051188,0.0013199017650033,-0.0014800187471469,0.0014806014064122,-0.0014806079553293,0.0014799600885813,6.0196721803076e-06,-5.4151438400318e-06,-0.00099172482638179,0.00099231576239551,7.5307197855828e-08,5.3535650971964e-07,-0.0010422681864807,0.0010465041479759,-0.0010420856807065,0.0010466510344495,-0.0010460772786693,0.0010426897110737,-0.0010459252793024,0.0010428285794443,-0.0011060909246511,0.0010955978906481,-0.0010948178379648,0.0011068152834948,0.72224657831381,1473840,32975,0.006148414175304,0.0061484489721296,0.0041268787540095,18.471768426901,6.297414741521e-05,6.297414741521e-05,6.297414741521e-05,1560253.1252984,0.016559546432827
25056000,0.99992175631001,0.016736426636634,0.0059108688071637,0.0059108980353134,0.0049146597941567,-0.0014809183934608,0.0014811280984243,-5.6076756944441e-06,5.8060088326157e-06,-1.6507689285596e-07,4.1130489305879e-07,-0.0015520969341334,0.0015483305948891,-0.0015483229425368,0.0015520943620502,-0.0015519533858737,0.0015485007136395,-0.0015481139629639,0.0015523293656914,-0.0013263604248858,0.001315466267539,-0.0013150819437158,0.0013267144408189,3.6740937018931e-07,-2.0222186340154e-07,3.5218509600007e-07,-1.2194251029593e-07,-0.0014809333516784,0.0014811305888,-0.0015499702659518,0.0015504986620847,-0.001550100346797,0.0015503474622143,-0.0015501153356376,0.0015503060220095,-0.0015503106155751,0.0015501291832901,-0.0013206020411744,0.0013211430835192,-0.0013211245073243,0.001320675759788,-0.0014808574309417,0.0014814504362182,-0.0014814599233915,0.0014807991972447,6.0207494144001e-06,-5.4236944280703e-06,-0.0009921076912375,0.00099269063421874,6.5806667422776e-08,5.3560776653736e-07,-0.0010427598464774,0.0010469880400222,-0.0010425732774745,0.0010471374715099,-0.0010465718574586,0.0010431703053195,-0.0010464165388274,0.0010433119262858,-0.0011065481669765,0.001096041796012,-0.0010952657445219,0.0011072684282943,0.72443199148259,1473840,32975,0.0061514834595996,0.0061515193373231,0.0041284551986526,18.746247579378,6.5169980635019e-05,6.5169980635019e-05,6.5169980635019e-05,1557703.0659863,0.016567390926031
25142400,0.99992331275915,0.016736451141667,0.0059108775111997,0.0059109067393495,0.0049146668911175,-0.0014816765195264,0.0014818651170072,-5.6226412458473e-06,5.8001505232958e-06,-1.8219211087716e-07,4.0717286594092e-07,-0.0015527772078861,0.0015489821467671,-0.0015490001328797,0.0015527489899851,-0.0015526291273535,0.0015491566152142,-0.0015487867420494,0.0015529885678837,-0.0013271500357631,0.0013162308580625,-0.0013158629766367,0.0013274885224111,3.6664368050617e-07,-2.1603733745346e-07,3.4717932721943e-07,-1.3134684841828e-07,-0.0014816877887253,0.0014818704816381,-0.0015506400465659,0.0015511593893998,-0.0015507714020323,0.0015510068920856,-0.0015507893313416,0.001550962554114,-0.00155098599315,0.00155078435875,-0.0013213858055034,0.0013219126604732,-0.0013219129479977,0.0013214409143585,-0.001481706456544,0.0014822961544818,-0.0014823224224726,0.0014816328988815,6.0262964912048e-06,-5.4272745381229e-06,-0.00099249346535596,0.00099307846112234,6.4568101924072e-08,5.3890260553805e-07,-0.0010432514088282,0.00104748328004,-0.0010430634598267,0.0010476343067219,-0.0010470665277069,0.0010436625370532,-0.0010469097775325,0.0010438056448398,-0.0011070092695213,0.0010964972598259,-0.0010957183730472,0.001107733514251,0.72672661468917,1473840,32975,0.0061545781613814,0.0061546123516342,0.0041300645520332,19.025687240173,6.7405497921378e-05,6.7405497921378e-05,6.7405497921378e-05,1555242.0552666,0.016575317835172
25228800,0.99992486490762,0.016736475662821,0.0059108862191913,0.0059109154473371,0.0049146739962926,-0.0014824186955402,0.0014826108390955,-5.6256218269932e-06,5.80731209103e-06,-1.8908675452891e-07,4.1734271940704e-07,-0.0015534444890218,0.0015496435533845,-0.0015496639505652,0.0015534138335966,-0.0015532905480493,0.0015498237480837,-0.0015494449775738,0.001553659189975,-0.0013279210246504,0.0013170023582112,-0.0013166246637495,0.0013282703329041,3.746877544792e-07,-2.2504187744552e-07,3.4726233211745e-07,-1.3247761045152e-07,-0.0014824320230719,0.0014826137089614,-0.0015513014901395,0.0015518258351751,-0.0015514331552083,0.0015516729856012,-0.0015514566401963,0.0015516235170349,-0.0015516535935833,0.0015514448557299,-0.0013221598893911,0.0013226812369256,-0.0013226883629285,0.0013222078732718,-0.0014825411949567,0.0014831462468659,-0.0014831742679554,0.0014824669757916,6.0310761641677e-06,-5.4326712670397e-06,-0.0009928805760895,0.00099346508972872,6.3722247622134e-08,5.3929588084767e-07,-0.0010437419584906,0.0010479765175529,-0.0010435537499078,0.0010481278847935,-0.001047560434158,0.0010441521915616,-0.0010474032788554,0.0010442957703037,-0.0011074712438713,0.0010969490597104,-0.0010961717157239,0.001108196275512,0.72915724986993,1473840,32975,0.0061576578436629,0.0061576911296656,0.0041316741658106,19.305437238474,6.9643497907789e-05,6.9643497907789e-05,6.9643497907789e-05,1552840.5138271,0.01658321535069
25315200,0.99992641215942,0.016736500197489,0.0059108949301091,0.0059109241582485,0.0049146811091316,-0.0014831563716066,0.001483353474007,-5.6282749232572e-06,5.8148418767155e-06,-1.9429194277107e-07,4.276229878112e-07,-0.0015541080218932,0.0015503034122906,-0.0015503240243237,0.0015540772294879,-0.001553948861754,0.0015504889262348,-0.0015501001063763,0.0015543276661834,-0.001328687364984,0.0013177691000526,-0.0013173813523886,0.0013290468379274,3.8027819141424e-07,-2.3490962499803e-07,3.4589692727548e-07,-1.3536411680975e-07,-0.0014831743163754,0.0014833517849743,-0.0015519626435766,0.0015524884579942,-0.0015520948062274,0.0015523349504455,-0.0015521228868684,0.0015522809048434,-0.0015523201437688,0.0015521017200166,-0.0013229304174277,0.0013234437368995,-0.0013234600274839,0.0013229688891693,-0.0014833736365226,0.0014839889888348,-0.0014840213414782,0.0014832943739401,6.036369158103e-06,-5.4375993704463e-06,-0.00099326567575569,0.00099385057252937,6.3176386744221e-08,5.402436026396e-07,-0.001044230746568,0.0010484686115421,-0.0010440421112536,0.0010486205080237,-0.0010480526737697,0.0010446409203289,-0.0010478949545958,0.0010447850115192,-0.0011079299470254,0.0010973987263503,-0.0010966205026576,0.0011086558183587,0.73180545707653,1473840,32975,0.0061607217918746,0.0061607551983374,0.0041332772169296,19.585207915334,7.1881663322669e-05,7.1881663322669e-05,7.1881663322669e-05,1550486.4691499,0.016591075328814
25401600,0.99992795391377,0.01673652493647,0.0059109037072379,0.0059109329353713,0.0049146882938606,-0.0014838916857113,0.001484088088497,-5.6323665087102e-06,5.8181597013564e-06,-1.9882578802345e-07,4.3147784302557e-07,-0.0015547710359077,0.0015509608227555,-0.0015509841110723,0.001554736499352,-0.0015546094347128,0.0015511484294859,-0.0015507573691179,0.0015549895452715,-0.0013294518871576,0.0013185271903261,-0.0013181378839189,0.0013298123155495,3.9296979038126e-07,-2.3045833490493e-07,3.5789429142945e-07,-1.2948691598111e-07,-0.0014839002319032,0.0014840950554978,-0.001552611176246,0.0015531589469984,-0.001552745784019,0.0015530033390872,-0.001552773268416,0.0015529485739171,-0.0015529733466934,0.0015527666038678,-0.0013236805875858,0.0013242158422221,-0.0013242170849881,0.0013237349540366,-0.0014841915433368,0.0014848294648928,-0.001484848020877,0.0014841264096492,6.0396423656822e-06,-5.4416455841872e-06,-0.00099365068085502,0.00099423441732083,5.9687126769101e-08,5.4241741436759e-07,-0.0010447185823289,0.0010489560010239,-0.0010445275686044,0.0010491091291444,-0.0010485429816969,0.0010451257229503,-0.0010483837427304,0.0010452715828913,-0.001108382868708,0.0010978451020698,-0.0010970657356965,0.0011091085713051,0.74041592505388,1473840,32975,0.006163764206592,0.0061637960745965,0.0041348766552073,19.864978235071,7.4119825880568e-05,7.4119825880568e-05,7.4119825880568e-05,1548099.8245081,0.016598886248648
25488000,0.99992948906119,0.016736549809961,0.0059109125274514,0.0059109417555752,0.0049146955269347,-0.0014849135880334,0.0014851111608969,-5.6350933458597e-06,5.8214967456878e-06,-1.991966928303e-07,4.3349279527825e-07,-0.0015555299628471,0.001551718082252,-0.0015517422844953,0.0015554967903714,-0.0015553670404764,0.0015519067822907,-0.0015515146979828,0.00155575070948,-0.0013306560297202,0.0013197261284669,-0.0013193362436179,0.0013310187775803,3.8187586751214e-07,-2.4397880462937e-07,3.540275219986e-07,-1.5225443751834e-07,-0.0014849359916265,0.0014851049915059,-0.0015533809874491,0.0015539085106695,-0.0015535199068625,0.0015537463444408,-0.0015535443443555,0.0015536990789159,-0.001553748766199,0.0015535099183972,-0.0013248891390065,0.0013254166623141,-0.0013254415875173,0.0013249142474608,-0.0014854852081633,0.0014860970142231,-0.0014861428666651,0.0014853878000335,6.0393571400392e-06,-5.4480524402764e-06,-0.00099411281441309,0.000994690377217,4.7487817919024e-08,5.4953339912522e-07,-0.0010454392518683,0.0010496653168174,-0.0010452427031255,0.0010498261166218,-0.0010492656208811,0.0010458333476101,-0.001049099442545,0.001045986189224,-0.0011089358048184,0.0010983920254088,-0.0010976118137786,0.0011096618629209,0.74755615334106,1473840,32975,0.0061679961041984,0.0061680294645171,0.004136790227378,20.139386877063,7.6315095016504e-05,7.6315095016504e-05,7.6315095016504e-05,1541101.5449315,0.016609439452552
25574400,0.99993101747246,0.01673657460635,0.0059109213211914,0.0059109505493107,0.0049147027358478,-0.0014857635632901,0.0014859733562592,-5.6372241066163e-06,5.8356405571333e-06,-1.9721296681753e-07,4.4385755222569e-07,-0.0015562187332443,0.0015524109737444,-0.0015524258178745,0.0015561948887482,-0.0015560530638542,0.00155260229875,-0.0015521950104481,0.0015564517793955,-0.0013316279304917,0.0013206963726482,-0.0013202912880068,0.0013320049720308,3.8344966085263e-07,-2.5077545936097e-07,3.5731260747023e-07,-1.6167418753684e-07,-0.0014857948822147,0.0014859584266033,-0.0015540710017182,0.0015546003526912,-0.0015542140941143,0.0015544342224418,-0.0015542371334242,0.0015543881004997,-0.001554446013766,0.001554194752526,-0.0013258574244921,0.0013263883251648,-0.0013264226883922,0.0013258728173816,-0.0014864976722947,0.0014871094029703,-0.0014871635697774,0.0014863911466895,6.055994354384e-06,-5.4477993631623e-06,-0.00099449215844047,0.00099508645764369,4.9517660545578e-08,5.6434438100628e-07,-0.0010460305828507,0.0010502744499275,-0.0010458298814278,0.0010504397000566,-0.0010498624138421,0.0010464369643421,-0.0010496920689997,0.0010465941374769,-0.0011093663856932,0.0010988275719975,-0.0010980256029107,0.0011101134034477,0.74842915896428,1473840,32975,0.0061715391554426,0.0061715728372868,0.0041384056066252,20.418664662314,7.8549317298509e-05,7.8549317298509e-05,7.8549317298509e-05,1536391.2511315,0.016618287327944
25660800,0.99993253858532,0.016736599304371,0.0059109300805382,0.005910959308654,0.0049147099151791,-0.0014862442572199,0.0014864473495542,-5.6447880016647e-06,5.8362476547316e-06,-2.0005526918308e-07,4.4005235319514e-07,-0.0015567554073683,0.0015529379060395,-0.0015529594501534,0.0015567256737312,-0.0015565888355085,0.0015531295922294,-0.0015527297093909,0.0015569813419027,-0.0013320451176635,0.0013211004358434,-0.0013207038640739,0.0013324158366191,3.8285319516285e-07,-2.5038638916368e-07,3.5769056015427e-07,-1.6282370208498e-07,-0.0014862724838734,0.0014864355256758,-0.0015546034598767,0.0015551332805526,-0.0015547476620286,0.0015549653679049,-0.0015547700402774,0.0015549207781604,-0.0015549783614788,0.0015547273094751,-0.0013262695719132,0.0013268004163427,-0.0013268326650331,0.001326282966548,-0.0014869233185569,0.0014875320741042,-0.0014875852125418,0.0014868158991373,6.0629370419248e-06,-5.4492257964771e-06,-0.00099469790055703,0.00099529801424057,5.2194987367611e-08,5.6865475535586e-07,-0.0010463177403784,0.0010505692926548,-0.0010461172566454,0.0010507354215779,-0.0010501524677923,0.0010467290399986,-0.0010499810789623,0.0010468867771176,-0.0011095663529568,0.0010990256196597,-0.0010982174681973,0.0011103186921739,0.7489758745775,1473840,32975,0.0061735147487588,0.0061735484590497,0.0041392726400373,20.698375739066,8.0787005912529e-05,8.0787005912529e-05,8.0787005912529e-05,1537137.5587383,0.016623185592512
25747200,0.99993404007413,0.016736623641721,0.0059109387134025,0.0059109679415171,0.0049147169868018,-0.0014865045482421,0.0014867048392539,-5.6467794435369e-06,5.8353838918909e-06,-1.9813213200678e-07,4.3530684141751e-07,-0.0015570638168215,0.0015532452055252,-0.0015532673885875,0.0015570336320369,-0.0015568991610631,0.0015534348122876,-0.0015530400612907,0.0015572867725042,-0.0013322386949303,0.001321288438384,-0.0013208975417474,0.0013326047058539,3.7853811070999e-07,-2.4804252792867e-07,3.5548640898296e-07,-1.6303795215749e-07,-0.0014865324935979,0.00148669332286,-0.0015549139432464,0.0015554388102092,-0.0015550575786646,0.0015552713096334,-0.0015550785423403,0.0015552284227725,-0.0015552859095108,0.001555035744252,-0.001326462339801,0.0013269907645553,-0.001327022570739,0.0013264751211333,-0.0014871539192259,0.0014877544728622,-0.0014878081488071,0.0014870451735664,6.0642928383191e-06,-5.4490103694397e-06,-0.00099474695318532,0.00099534881297003,5.417555428471e-08,5.6866774975571e-07,-0.0010464143344688,0.0010506686535951,-0.0010462146148915,0.0010508341204006,-0.0010502494331734,0.0010468279757006,-0.0010500787408822,0.0010469851263282,-0.0011096268480219,0.0010990860473106,-0.0010982771165883,0.0011103797269813,0.74771686957254,1473840,32975,0.006174586080451,0.0061746198445951,0.0041394810175357,20.850697415676,8.2005579325406e-05,8.2005579325406e-05,8.2005579325406e-05,1537298.6414029,0.016625575737652
25833600,0.99993550394087,0.016736647359597,0.0059109471269622,0.0059109763550762,0.0049147238775589,-0.0014863142142929,0.0014865160533019,-5.6440652120361e-06,5.8339865543425e-06,-1.951780110555e-07,4.3377879156766e-07,-0.00155695012801,0.0015531355598529,-0.0015531545902038,0.0015569230773298,-0.0015567862284386,0.0015533239657185,-0.0015529291531962,0.0015571742731013,-0.0013319686959109,0.0013210238493104,-0.0013206331521785,0.0013323348470671,3.7709777488061e-07,-2.4497392761411e-07,3.5338603085992e-07,-1.5971269159668e-07,-0.001486342115221,0.0014865044075303,-0.0015548030393557,0.0015553264364135,-0.0015549451725156,0.0015551604268412,-0.0015549664545252,0.0015551173547055,-0.0015551717555465,0.0015549266346398,-0.0013261966256538,0.0013267225373703,-0.0013267507870955,0.0013262115741548,-0.0014868984764897,0.0014874975090869,-0.0014875473119843,0.0014867931630768,6.0621180357183e-06,-5.4470716684193e-06,-0.00099448140655483,0.00099508298961721,5.6920706453754e-08,5.6606110658234e-07,-0.0010461512870374,0.0010504056252284,-0.001045953952442,0.001050569301726,-0.0010499852035784,0.0010465662116811,-0.0010498157537222,0.0010467217626091,-0.001109354086997,0.0010988161320377,-0.001098009234948,0.0011101046364001,0.74742157096038,1473840,32975,0.006173800932549,0.0061738343371518,0.0041383781494513,20.803716534976,8.1629732279806e-05,8.1629732279806e-05,8.1629732279806e-05,1537846.8440852,0.016622857398092
25920000,0.9999369302013,0.016736670447963,0.005910955317466,0.0059109845455794,0.0049147305849175,-0.0014861775163524,0.0014863754689073,-5.6436435642572e-06,5.8297911410858e-06,-1.9442617743815e-07,4.2918827370012e-07,-0.0015568518970823,0.0015530370702094,-0.0015530582578844,0.0015568227386235,-0.0015566902650202,0.0015532234947321,-0.0015528342698824,0.0015570724044829,-0.0013317746929271,0.0013208277361943,-0.0013204428164138,0.0013321349721073,3.7486588746312e-07,-2.4188212317354e-07,3.522100495921e-07,-1.5752999206712e-07,-0.0014862031182916,0.0014863663145479,-0.0015547057990293,0.001555227007738,-0.0015548466661924,0.0015550623457981,-0.0015548672196556,0.0015550198110177,-0.001555071699214,0.0015548301257296,-0.0013260016767016,0.0013265269905079,-0.0013265531476503,0.001326019677171,-0.0014867409424456,0.0014873369672309,-0.0014873851102126,0.0014866376637035,6.0593104319694e-06,-5.4452819073731e-06,-0.00099423495055761,0.00099483550982037,5.7989391009263e-08,5.636742837282e-07,-0.0010459094889259,0.0010501626000097,-0.0010457128875035,0.0010503250396336,-0.0010497417454907,0.0010463246753947,-0.001049573904433,0.0010464789794517,-0.0011091266936163,0.001098590462538,-0.0010977856913065,0.0011098749619629,0.74679298501794,1473840,32975,0.0061732265911832,0.0061732603944887,0.0041373539458461,20.745086253303,8.1160690026424e-05,8.1160690026424e-05,8.1160690026424e-05,1537360.1769673,0.016620648656847
26006400,0.99993831984281,0.016736692783748,0.0059109632441177,0.0059109924722309,0.0049147370673997,-0.0014860290818719,0.0014862325519585,-5.6390797504306e-06,5.8303501308093e-06,-1.8993725357099e-07,4.3038229006891e-07,-0.0015567381593593,0.0015529309424081,-0.0015529455884545,0.0015567156607584,-0.0015565768243413,0.001553116432938,-0.0015527228735356,0.0015569638451244,-0.0013315786434748,0.0013206406836748,-0.0013202522336116,0.0013319436596835,3.7113401462569e-07,-2.4228284310772e-07,3.4890501835289e-07,-1.5910315669198e-07,-0.001486059606044,0.0014862182632711,-0.0015545989566989,0.0015551140104743,-0.0015547392752041,0.0015549496097419,-0.0015547595625885,0.0015549079067666,-0.0015549628740029,0.0015547186807837,-0.0013258134974316,0.0013263334270395,-0.0013263620321051,0.0013258269990884,-0.0014865734636557,0.0014871624773583,-0.001487213108443,0.0014864661307715,6.0580826477289e-06,-5.4424904310181e-06,-0.00099399407431554,0.00099459654310419,5.9923776399999e-08,5.6398427680639e-07,-0.0010456770079887,0.001049931168522,-0.0010454815487291,0.0010500932321612,-0.0010495082048349,0.0010460947962928,-0.0010493405376388,0.0010462487952955,-0.0011088991679578,0.0010983687323693,-0.0010975623594733,0.0011096480127224,0.74152878065723,1473840,32975,0.0061726231607442,0.0061726565253704,0.0041363587979655,20.685411318086,8.0683290544687e-05,8.0683290544687e-05,8.0683290544687e-05,1536978.0827072,0.016618409416915
26092800,0.99993967390631,0.01673671422308,0.0059109708590234,0.005911000087136,0.0049147432769207,-0.0014856730499705,0.0014858686819796,-5.6392076078339e-06,5.8232229766922e-06,-1.8833570226757e-07,4.2067863828798e-07,-0.0015565628352595,0.0015527542449199,-0.0015527729429044,0.001556536086437,-0.0015564061934796,0.0015529357186311,-0.0015525536696691,0.0015567810565908,-0.00133102676272,0.0013200831881054,-0.0013197050803832,0.0013313800182784,3.7003040903587e-07,-2.3211849258877e-07,3.4756881287393e-07,-1.4787073722272e-07,-0.0014856950171301,0.0014858631316015,-0.0015544221053529,0.0015549385265971,-0.0015545581749787,0.0015547787129456,-0.0015545787319307,0.0015547362608557,-0.0015547784914126,0.001554551347698,-0.0013252574263349,0.0013257783363226,-0.001325794955705,0.0013252856090227,-0.0014860771099593,0.0014866685030948,-0.001486707287613,0.0014859836787965,6.0518063834616e-06,-5.4417329514645e-06,-0.00099371371653936,0.00099431035260388,6.3042272728195e-08,5.5446119079204e-07,-0.0010452575931284,0.0010495077764765,-0.0010450655304526,0.001049665570233,-0.0010490860408205,0.0010456736831938,-0.0010489230592514,0.001045823156773,-0.0011086497389973,0.0010981154213979,-0.0010973194900444,0.0011093897015712,0.7305486148308,1473840,32975,0.0061711335216555,0.006171167261776,0.0041351805393318,20.625636158798,8.0205089270383e-05,8.0205089270383e-05,8.0205089270383e-05,1540267.8866731,0.016614181995514
26179200,0.99994099340806,0.016736735479728,0.0059109784001541,0.0059110076282662,0.0049147494513079,-0.0014850216062287,0.0014852075015652,-5.6411661766242e-06,5.8154464405661e-06,-1.8264309809206e-07,4.051431346852e-07,-0.0015562804946825,0.0015524711402499,-0.0015524924816251,0.001556251040032,-0.0015561307911247,0.0015526455048824,-0.0015522801930623,0.0015564889227952,-0.0013300076992545,0.0013190530999812,-0.0013186916482325,0.0013303441650883,3.623080347753e-07,-2.1860584634198e-07,3.3809435001062e-07,-1.3273277915186e-07,-0.0014850358718024,0.0014852096572217,-0.0015541440197511,0.0015546508935223,-0.0015542720299746,0.0015544992951869,-0.0015542936512833,0.0015544557347128,-0.0015544853636181,0.001554279017639,-0.0013242383955571,0.0013247480779,-0.0013247520644742,0.0013242795392139,-0.0014851290162815,0.0014857136015779,-0.001485738554069,0.0014850496411835,6.0476587722222e-06,-5.4400344193064e-06,-0.00099339816109131,0.00099399229034985,7.3991678321076e-08,5.4085688936879e-07,-0.0010446163994279,0.001048870322545,-0.0010444325542202,0.0010490199495094,-0.0010484429232588,0.00104503818309,-0.0010482880871998,0.001045179516705,-0.0011083735100086,0.0010978343475913,-0.0010970491109165,0.0011091029559081,0.7432449394375,1473840,32975,0.0061684181294286,0.0061684518790172,0.0041338587177542,20.565852549138,7.9726820393102e-05,7.9726820393102e-05,7.9726820393102e-05,1548651.9278903,0.016607314799123
26265600,0.9999422793333,0.016736756436198,0.0059109858292046,0.0059110150573162,0.0049147555496774,-0.0014857162144609,0.001485907283212,-5.639070753765e-06,5.8183551191391e-06,-1.8836925035903e-07,4.1621806470984e-07,-0.0015565186128338,0.0015527098906347,-0.0015527313555295,0.0015564888322626,-0.0015563654247463,0.001552889188082,-0.0015525127976464,0.0015567336555253,-0.0013310660936773,0.0013201188663628,-0.0013197459160637,0.0013314137234958,3.7111278985529e-07,-2.2662968462127e-07,3.4946065688631e-07,-1.4239774588321e-07,-0.0014857323847342,0.001485907526371,-0.0015543755421637,0.0015548946340632,-0.0015545086606873,0.0015547374613799,-0.0015545298064212,0.0015546953770236,-0.0015547289378014,0.0015545104708625,-0.0013252917294213,0.0013258204467035,-0.0013258291542499,0.00132532903439,-0.0014862593553597,0.0014868565723348,-0.0014868890581852,0.0014861740634831,6.044545407445e-06,-5.4434459303558e-06,-0.00099342454317213,0.00099401266039176,6.0346733590683e-08,5.4779735499671e-07,-0.0010450150008196,0.0010492566147736,-0.0010448232193676,0.0010494124125046,-0.0010488412050818,0.0010454244760133,-0.0010486806398982,0.0010455725421164,-0.0011085001356095,0.0010979607494226,-0.0010971761001151,0.0011092304476648,0.75194074992056,1473840,32975,0.0061713022431911,0.0061713359733822,0.0041339681137294,20.506069051961,7.9248552415686e-05,7.9248552415686e-05,7.9248552415686e-05,1535310.4974962,0.016613293174974
26352000,0.99994353263639,0.01673677688725,0.0059109930792946,0.0059110223074026,0.0049147615005533,-0.001486039944249,0.0014862343067907,-5.6387467727419e-06,5.8213817014027e-06,-1.8916432553897e-07,4.2048453363354e-07,-0.0015565663718091,0.0015527571850238,-0.0015527775285554,0.001556538190089,-0.0015564098468592,0.0015529386720892,-0.0015525578666355,0.0015567836569457,-0.0013316417441,0.0013206988545923,-0.0013203218888112,0.0013319943830445,3.7023991927628e-07,-2.3257858794152e-07,3.5004425867882e-07,-1.5053619557528e-07,-0.0014860614038654,0.00148622931318,-0.0015544245121655,0.0015549422543027,-0.0015545618043808,0.0015547810813025,-0.0015545810657251,0.0015547401753442,-0.0015547826983854,0.0015545531459354,-0.0013258704964502,0.0013263974590656,-0.0013264141964156,0.0013258983239935,-0.0014868077210032,0.0014873991491885,-0.0014874395885302,0.0014867118772328,6.0484138681789e-06,-5.4428277335818e-06,-0.00099333997164949,0.00099393233941691,5.8351293784617e-08,5.5488030655131e-07,-0.0010452120873617,0.0010494558269146,-0.0010450182610499,0.0010496151686961,-0.0010490400114662,0.0010456223608465,-0.0010488753179038,0.0010457736286204,-0.0011084287868481,0.0010978938977553,-0.0010971008538657,0.0011091662819257,0.75272444956422,1473840,32975,0.0061726475220674,0.0061726813629183,0.0041336332156971,20.446283565987,7.8770268527891e-05,7.8770268527891e-05,7.8770268527891e-05,1527514.3295839,0.016615690065456
26438400,0.99994475424223,0.016736796947004,0.0059110001882377,0.0059110294163448,0.004914767342422,-0.0014858711878749,0.0014860629542366,-5.6374113207334e-06,5.8174443400758e-06,-1.8708880873999e-07,4.155902550753e-07,-0.0015564327421506,0.0015526249334248,-0.0015526454036013,0.0015564043405767,-0.0015562781283432,0.0015528042756855,-0.0015524282134388,0.0015566471226048,-0.001331438698397,0.0013204965641196,-0.0013201246753189,0.0013317859823463,3.6826699026263e-07,-2.2756578115178e-07,3.498656214116e-07,-1.4754854261922e-07,-0.0014858898844215,0.0014860606854184,-0.0015542918182098,0.001554809414822,-0.0015544284594471,0.001554648986309,-0.0015544463204148,0.0015546093082486,-0.0015546467276269,0.0015544236745695,-0.0013256668141063,0.0013261948755267,-0.0013262065246378,0.0013256996344506,-0.0014865986447731,0.0014871862987107,-0.0014872227109058,0.0014865072206487,6.0438362269654e-06,-5.4421312641126e-06,-0.00099303651742736,0.00099362488048527,5.7960413571563e-08,5.5134467158486e-07,-0.0010449585785941,0.0010491974499341,-0.0010447659797426,0.0010493558480807,-0.0010487846083474,0.0010453657811979,-0.0010486209171342,0.0010455159877623,-0.0011080990281545,0.0010975645903245,-0.0010967762344691,0.0011088311829366,0.75734697635795,1473840,32975,0.0061719426525512,0.0061719764153399,0.0041323661205155,20.386499002423,7.8291992019381e-05,7.8291992019381e-05,7.8291992019381e-05,1526918.5700897,0.01661296860329
26524800,0.99994595228452,0.016736816667318,0.0059110071761867,0.0059110364042934,0.0049147730868376,-0.0014861125170445,0.001486305198355,-5.6376774952842e-06,5.8187006714329e-06,-1.8762148689336e-07,4.170226843422e-07,-0.0015565845409006,0.0015527765034822,-0.001552796711614,0.001556556300097,-0.0015564293212145,0.0015529564619149,-0.0015525788077023,0.0015567998337587,-0.0013317450602012,0.0013208028502087,-0.0013204291089503,0.0013320939125114,3.6693977597267e-07,-2.3088437040022e-07,3.4891223574158e-07,-1.5116071215255e-07,-0.001486133972682,0.001486300172856,-0.0015544449691849,0.0015549595374447,-0.0015545825311604,0.0015547982221027,-0.0015546001370037,0.0015547587671418,-0.0015548014523774,0.0015545722451343,-0.0013259743310243,0.0013264996202748,-0.0013265166155271,0.0013260020774073,-0.0014869219348307,0.0014875059706482,-0.0014875481171021,0.0014868249830119,6.0480415809614e-06,-5.4394823232127e-06,-0.00099298171595668,0.00099357684573969,5.9972802993035e-08,5.5603199027608e-07,-0.0010450419007502,0.0010492870871627,-0.0010448483615674,0.0010494464501805,-0.0010488684078448,0.0010454549819909,-0.001048703887989,0.0010456060179901,-0.0011080607860655,0.0010975323188233,-0.0010967363158141,0.0011088008493085,0.75917778140844,1473840,32975,0.0061729425468325,0.0061729763146198,0.0041321566431922,20.425543890353,7.8604351122823e-05,7.8604351122823e-05,7.8604351122823e-05,1523494.5064859,0.016614789506614
26611200,0.99994713740235,0.016736836168226,0.0059110140868236,0.0059110433149299,0.0049147787664723,-0.0014864843969866,0.0014866760742528,-5.6396654424807e-06,5.8196782964065e-06,-1.8886442277226e-07,4.172628969562e-07,-0.0015569629720697,0.0015531525030556,-0.0015531741955026,0.0015569332430651,-0.0015568073222394,0.0015533329250804,-0.0015529557712801,0.0015571773247584,-0.0013320891200224,0.0013211433360009,-0.0013207700241068,0.0013324374267105,3.6974948334341e-07,-2.2952224278e-07,3.5236900059926e-07,-1.5031851463665e-07,-0.0014865032257299,0.0014866736651781,-0.0015548193770246,0.0015553394865241,-0.0015549577753399,0.0015551773387245,-0.0015549749840346,0.0015551382719092,-0.0015551771948021,0.0015549508561139,-0.0013263133065737,0.0013268449278294,-0.0013268581879603,0.0013263448783802,-0.0014872925258215,0.0014878813084648,-0.001487920373825,0.0014871988798745,6.0498022111847e-06,-5.4407005580832e-06,-0.00099309732100317,0.00099369297381241,5.8914972965134e-08,5.5759042343269e-07,-0.0010452339799817,0.0010494797896175,-0.0010450395261886,0.0010496400323997,-0.001049061471061,0.0010456467146657,-0.0010488960633302,0.0010457985998135,-0.0011081943088183,0.0010976642639086,-0.0010968668002695,0.0011089358414594,0.75888695187939,1473840,32975,0.006174479444448,0.0061745131904551,0.0041326395789989,20.606403440785,8.0051227526275e-05,8.0051227526275e-05,8.0051227526275e-05,1522819.6633441,0.016618405487693
26697600,0.99994831002218,0.016736855432608,0.0059110209145452,0.0059110501426508,0.0049147843754117,-0.0014867933029379,0.0014869848128314,-5.6396010673459e-06,5.8195020075815e-06,-1.8955686963557e-07,4.176843863811e-07,-0.0015573264050294,0.001553515815946,-0.0015535377370877,0.0015572958711357,-0.0015571713469062,0.0015536964400597,-0.0015533187812723,0.0015575408250936,-0.0013323340140148,0.0013213880548825,-0.0013210143407152,0.001332682335395,3.7222000423174e-07,-2.2836831468267e-07,3.5580632168617e-07,-1.4880640938976e-07,-0.001486810224373,0.0014869849878174,-0.0015551797696433,0.0015557061473363,-0.0015553199843489,0.0015555433995555,-0.0015553350469224,0.0015555031572156,-0.0015555390780353,0.001555315423362,-0.0013265542957214,0.0013270916937589,-0.0013271017860055,0.0013265904949296,-0.0014875549681348,0.0014881471015435,-0.0014881854235835,0.0014874649331098,6.0496161276312e-06,-5.4408857657308e-06,-0.00099322074546682,0.0009938160009659,5.7661427510323e-08,5.580952246503e-07,-0.0010453967888606,0.001049641861127,-0.0010452012054483,0.0010498023034763,-0.0010492244314086,0.0010458087549729,-0.0010490584850641,0.0010459608222414,-0.0011083272801517,0.00109779677974,-0.0010969991729719,0.0011090688992723,0.75768466367644,1473840,32975,0.0061757576882061,0.006175792835394,0.0041331517567381,20.795560261332,8.1564482090653e-05,8.1564482090653e-05,8.1564482090653e-05,1523477.0620348,0.016621526346268
26784000,0.9999494700051,0.0167368744395,0.0059110276521495,0.0059110568802555,0.0049147899070948,-0.0014870933151508,0.0014872897355586,-5.6381944522436e-06,5.823130076298e-06,-1.8864826969724e-07,4.2140742476426e-07,-0.0015576974544912,0.0015538897881234,-0.0015539074334384,0.001557670512956,-0.0015575414896848,0.0015540717193675,-0.0015536876269069,0.0015579166907273,-0.001332549685788,0.0013216072938135,-0.0013212270259775,0.0013329029576876,3.7041660179014e-07,-2.3291288443901e-07,3.5241401621659e-07,-1.5111987297975e-07,-0.0014871158304846,0.0014872847655854,-0.0015555548039963,0.0015560763748375,-0.0015556950590091,0.0015559141210506,-0.0015557113753978,0.0015558726588633,-0.0015559152391171,0.001555685290042,-0.0013267747997202,0.0013273045203746,-0.0013273213130557,0.0013268048473908,-0.0014878098449582,0.00148839838033,-0.0014884436872186,0.0014877144725181,6.0510389997754e-06,-5.441514877914e-06,-0.00099335632197363,0.00099395188353341,5.8212416538927e-08,5.5766842031582e-07,-0.0010455419616009,0.0010497881025949,-0.0010453466736395,0.0010499482426056,-0.0010493701734955,0.0010459543425443,-0.0010492042892179,0.0010461059387714,-0.0011084881490432,0.0010979559730819,-0.0010971579486761,0.0011092301089153,0.75573598428037,1473840,32975,0.0061770098873757,0.0061770459651227,0.0041337155289731,20.985461065304,8.3083688522432e-05,8.3083688522432e-05,8.3083688522432e-05,1524600.058856,0.016624646101591
26870400,0.99995061716796,0.016736893172649,0.0059110342940689,0.0059110635221771,0.0049147953564026,-0.0014873879010604,0.0014875825133616,-5.6412738063008e-06,5.8246308111762e-06,-1.9058754604947e-07,4.2148507556652e-07,-0.0015580775932058,0.0015542659037654,-0.0015542860979609,0.0015580481395696,-0.0015579208951192,0.0015544483944194,-0.001554065537365,0.0015582950137666,-0.0013327386994804,0.001321790873145,-0.0013214113398351,0.0013330910209005,3.7008125471494e-07,-2.3520960557697e-07,3.5054431145617e-07,-1.5182407338824e-07,-0.0014874105115514,0.0014875767809735,-0.0015559339988234,0.0015564528793738,-0.0015560735140482,0.0015562910725506,-0.0015560912524481,0.001556248780484,-0.001556294634783,0.0015560618779536,-0.0013269629385658,0.0013274883695026,-0.0013275082289358,0.0013269898921217,-0.00148805004668,0.00148863840971,-0.0014886859638261,0.0014879522149941,6.0523064592937e-06,-5.4449312567793e-06,-0.00099350589964238,0.00099409907262775,5.7619235687901e-08,5.5596292421562e-07,-0.0010456730665643,0.0010499185279305,-0.001045478185722,0.001050078434303,-0.0010495026805441,0.0010460831897334,-0.001049337061016,0.0010462344165225,-0.001108680666585,0.0010981413844346,-0.0010973460347669,0.0011094202925172,0.75321654530494,1473840,32975,0.0061782259448973,0.0061782606412722,0.0041343315726868,21.175433353957,8.4603466831657e-05,8.4603466831657e-05,8.4603466831657e-05,1526091.7351855,0.016627743063502
26956800,0.99995175132897,0.016736911620632,0.005911040836367,0.0059110700644756,0.004914800719789,-0.0014876725342448,0.0014878656885316,-5.6441589903079e-06,5.82606862921e-06,-1.9158889604415e-07,4.2118042378502e-07,-0.0015584570592669,0.0015546422664548,-0.0015546643805372,0.0015584261067803,-0.0015583000099815,0.0015548249655755,-0.0015544436375485,0.0015586730288264,-0.0013329038961587,0.0013219507755799,-0.0013215725651297,0.0013332552665362,3.7424661025726e-07,-2.3171577936032e-07,3.5382407931228e-07,-1.4756253231759e-07,-0.0014876904082798,0.0014878642144558,-0.0015563082174521,0.001556834383564,-0.0015564471678241,0.001556672734367,-0.0015564656621949,0.0015566300065434,-0.0015566684377902,0.0015564433467815,-0.0013271224408783,0.0013276540638237,-0.0013276664628493,0.0013271567234408,-0.0014882721984679,0.0014888693295889,-0.0014889082190005,0.0014881818292217,6.048882358686e-06,-5.4526330683328e-06,-0.00099367221215661,0.00099425442833407,5.2690130709586e-08,5.5006939347085e-07,-0.0010458015558807,0.0010500377754581,-0.0010456070761198,0.0010501975064994,-0.0010496325323195,0.0010462010829594,-0.001049467266462,0.0010463520345814,-0.0011089004606764,0.0010983456324885,-0.001097561663969,0.0011096289213612,0.75029979112073,1473840,32975,0.0061794016881468,0.0061794353940469,0.0041349990658205,21.365412307663,8.6123298461305e-05,8.6123298461305e-05,8.6123298461305e-05,1527857.1999502,0.016630810687348
27043200,0.99995287231229,0.016736929775746,0.0059110472763601,0.0059110765044678,0.0049148059949179,-0.0014879485262492,0.0014881409680403,-5.6462103964723e-06,5.8273803530953e-06,-1.9166937264656e-07,4.206697373654e-07,-0.0015588327640886,0.0015550162039498,-0.0015550389386568,0.00155880126282,-0.001558675815178,0.001555198850486,-0.0015548184425892,0.0015590478757749,-0.0013330557986293,0.0013220986094015,-0.0013217212203411,0.0013334060425143,3.7612272796534e-07,-2.293842715255e-07,3.5524697613226e-07,-1.448198874642e-07,-0.0014879639660499,0.0014881419772885,-0.0015566812950448,0.0015572113326405,-0.0015568200013001,0.0015570498986391,-0.0015568385627968,0.0015570067858944,-0.0015570408603616,0.0015568206637593,-0.0013272708546524,0.0013278049844831,-0.0013278132797453,0.0013273095122666,-0.0014884841149101,0.0014890851200642,-0.0014891191248313,0.001488398155991,6.0543952072333e-06,-5.450557238742e-06,-0.00099383874736036,0.00099442853650982,5.7080148705138e-08,5.5321113268564e-07,-0.0010459199030428,0.0010501651634253,-0.0010457257749235,0.001050324561518,-0.0010497519534851,0.0010463273370512,-0.0010495871173855,0.0010464779034894,-0.0011091231995146,0.0010985722624084,-0.0010977808399622,0.0011098588830206,0.74711825192493,1473840,32975,0.0061805432999773,0.0061805771074733,0.004135705731087,21.555391667643,8.7643133341143e-05,8.7643133341143e-05,8.7643133341143e-05,1529829.610411,0.016633849802956
27129600,0.9999539799485,0.016736947632683,0.0059110536121759,0.005911082840283,0.0049148111802237,-0.0014882185057188,0.0014884092185079,-5.6485488139134e-06,5.8279123875185e-06,-1.9178070743227e-07,4.1904622039905e-07,-0.0015592077925919,0.0015553890610282,-0.0015554128726928,0.0015591750070882,-0.0015590510396513,0.0015555709673268,-0.0015551927097653,0.0015594209495194,-0.0013331952358451,0.0013222328405257,-0.0013218577599703,0.0013335429692294,3.7118569271771e-07,-2.3288400170074e-07,3.4891518366106e-07,-1.4742006023072e-07,-0.0014882374152197,0.0014884067433388,-0.0015570601847793,0.0015575800412968,-0.0015571977832202,0.0015574197866684,-0.0015572170631033,0.0015573757486592,-0.0015574181547488,0.0015571910259912,-0.0013274138852061,0.0013279356150775,-0.0013279525452817,0.0013274440394801,-0.0014886925495405,0.0014892847185894,-0.0014893261383734,0.0014885995536707,6.0571926687571e-06,-5.4506339875707e-06,-0.00099401411555496,0.00099460649970659,6.0226096370155e-08,5.5269260147664e-07,-0.0010460363134181,0.001050286323855,-0.001045843581718,0.0010504446056075,-0.0010498694232478,0.0010464475528724,-0.0010497058784941,0.0010465969787185,-0.0011093589776104,0.001098806567735,-0.0010980135179708,0.0011100959208436,0.74375512201658,1473840,32975,0.0061816579955565,0.0061816917725225,0.0041364385778273,21.745370848182,8.9162966785453e-05,8.9162966785453e-05,8.9162966785453e-05,1531978.0922849,0.016636860647112
27216000,0.99995507407488,0.016736965187666,0.0059110598424673,0.0059110890705739,0.0049148162746252,-0.0014884794070909,0.0014886744954477,-5.6478802049718e-06,5.8316629535504e-06,-1.8915386076745e-07,4.2078822042031e-07,-0.0015595785780486,0.0015557635022288,-0.0015557826465215,0.0015595504929756,-0.0015594220155588,0.0015559450492204,-0.0015555627865823,0.0015597959562575,-0.001333319715622,0.0013223585679099,-0.0013219794658035,0.0013336716517639,3.7040795049312e-07,-2.3277854788143e-07,3.4673202685138e-07,-1.4645759519938e-07,-0.0014885008951341,0.0014886693165107,-0.0015574335851883,0.0015579515377731,-0.0015575704363878,0.0015577921620019,-0.0015575903443939,0.0015577472872494,-0.0015577904339431,0.0015575637553081,-0.0013275410770857,0.0013280584853153,-0.001328076474364,0.0013275702516049,-0.0014888883720878,0.0014894799295367,-0.0014895205678651,0.001488795928879,6.0579252017268e-06,-5.4531743295059e-06,-0.00099419648426321,0.00099478713253798,6.0968457525943e-08,5.5011074415823e-07,-0.0010461510625111,0.0010504014399683,-0.0010459593488346,0.001050558932592,-0.0010499851589959,0.0010465616789817,-0.0010498228573078,0.0010467099886259,-0.0011096051544776,0.0010990462828679,-0.0010982563368256,0.0011103391805267,0.74026144543135,1473840,32975,0.0061827478049851,0.006182781322564,0.0041371913709794,21.935349825159,9.0682798601271e-05,9.0682798601271e-05,9.0682798601271e-05,1534276.9390311,0.016639840920989
27302400,0.99995615249761,0.016736982476101,0.0059110659783105,0.0059110952064161,0.0049148212913741,-0.00148867457411,0.0014888694535467,-5.648845662755e-06,5.8324903189864e-06,-1.8808605723759e-07,4.1937929542644e-07,-0.0015598880206432,0.0015560728591523,-0.0015560914109866,0.0015598606562956,-0.0015597321036849,0.0015562538108111,-0.0015558726446173,0.0015601051194531,-0.0013333730462358,0.0013224097774659,-0.0013220316974037,0.0013337243987768,3.731171805645e-07,-2.2756909288349e-07,3.4969063437089e-07,-1.4181615393742e-07,-0.0014886921447826,0.0014888683556735,-0.0015577399910376,0.0015582643153729,-0.0015578763059434,0.0015581053310213,-0.0015578960375103,0.0015580610796183,-0.00155809546308,0.0015578781599034,-0.0013275901506457,0.0013281143208214,-0.001328123587165,0.0013276276471135,-0.0014890093068496,0.001489606909635,-0.0014896387753205,0.0014889257282437,6.0611476272605e-06,-5.4516948804564e-06,-0.00099432837660716,0.00099492372425893,6.4223273044828e-08,5.5168814289228e-07,-0.0010462066681068,0.0010504628178979,-0.0010460158675418,0.0010506197714721,-0.0010500413538057,0.0010466224718128,-0.0010498793958468,0.0010467702716913,-0.0011097999809054,0.0010992437103611,-0.0010984500710491,0.0011105382852707,0.73966770907571,1473840,32975,0.0061835560001872,0.0061835898569076,0.004137747873697,22.094095496929,9.1952763975428e-05,9.1952763975428e-05,9.1952763975428e-05,1536617.0179834,0.016642049636442
27388800,0.99995721253861,0.016736999574559,0.0059110720443069,0.0059111012724123,0.0049148262578403,-0.0014889470187565,0.0014891377578552,-5.6517678266097e-06,5.83088123149e-06,-1.8785068970293e-07,4.1527589650009e-07,-0.0015601868684953,0.0015563685953558,-0.0015563902363263,0.0015601571856497,-0.0015600321078835,0.0015565480711112,-0.0015561728765825,0.0015604001672696,-0.0013335596482748,0.0013225893578192,-0.0013222179595112,0.0013339060665923,3.6721015583194e-07,-2.290569724825e-07,3.4571135966133e-07,-1.4580181097033e-07,-0.0014889664312525,0.0014891347590573,-0.0015580427725842,0.0015585561238158,-0.001558177546115,0.0015583976188993,-0.0015581974535141,0.0015583558743587,-0.0015583959121751,0.0015581722178023,-0.0013277775820594,0.0013282970062087,-0.0013283114117627,0.0013278080874751,-0.0014893049188067,0.0014898921998596,-0.0014899295199623,0.0014892129922584,6.0614672955908e-06,-5.452469416754e-06,-0.00099442929483995,0.00099502481653183,6.4444880962506e-08,5.5193030678008e-07,-0.001046293446075,0.0010505506081113,-0.001046102768485,0.0010507071426957,-0.001050128708662,0.0010467097396025,-0.0010499670251216,0.0010468579455499,-0.0011099914203541,0.0010994347640348,-0.0010986412506203,0.0011107291467393,0.744214473642,1473840,32975,0.0061846755109793,0.0061847092434456,0.004138168810185,22.211649453327,9.2893195626616e-05,9.2893195626616e-05,9.2893195626616e-05,1536322.8943295,0.016644753730151
27475200,0.99995825416855,0.016737016399148,0.0059110780125708,0.0059111072406757,0.0049148311459016,-0.0014894840745743,0.0014896767688919,-5.6513785050985e-06,5.8323351384151e-06,-1.8917510165785e-07,4.186828795284e-07,-0.0015605616233377,0.0015567435103808,-0.0015567647867661,0.0015605323469005,-0.001560405494538,0.0015569244533022,-0.0015565457367503,0.0015607770842557,-0.0013342107172077,0.0013232423846992,-0.0013228678520051,0.001334560802142,3.6916327648538e-07,-2.3183440967754e-07,3.5002077777438e-07,-1.5082360255968e-07,-0.0014895048192103,0.0014896723975219,-0.0015584156555613,0.0015589327097558,-0.0015585532431458,0.0015587712946688,-0.0015585716813763,0.0015587310623302,-0.0015587733516683,0.0015585440743612,-0.001328426113834,0.0013289530278342,-0.0013289696592334,0.0013284543168181,-0.0014900034297001,0.0014905921865521,-0.001490633469193,0.0014899074205677,6.0617808227984e-06,-5.4532236480089e-06,-0.00099459111337939,0.00099518639609367,5.9684958076088e-08,5.5647427769377e-07,-0.0010466228725271,0.0010508772450297,-0.0010464290882251,0.0010510367750538,-0.001050458581535,0.0010470359691725,-0.0010502937711379,0.0010471872959795,-0.0011102143142498,0.0010996592518615,-0.0010988629075515,0.0011109545838611,0.74522278535934,1473840,32975,0.006186902064658,0.0061869357129403,0.004138845423824,22.32677950677,9.3814236054157e-05,9.3814236054157e-05,9.3814236054157e-05,1531488.3091313,0.016649969960841
27561600,0.99995927751001,0.016737032956563,0.0059110838854531,0.0059111131135571,0.0049148359575529,-0.0014898010716267,0.0014899988433911,-5.6489794712187e-06,5.8350982322516e-06,-1.8724484433042e-07,4.2175586580142e-07,-0.0015608498986462,0.0015570363218196,-0.001557052899916,0.0015608252908402,-0.0015606933379651,0.0015572176969295,-0.0015568335060558,0.0015610703598755,-0.001334525319806,0.0013235622706688,-0.0013231820302266,0.0013348807497071,3.6984430408214e-07,-2.3227038508285e-07,3.5138982636692e-07,-1.519628578715e-07,-0.0014898242484081,0.0014899920694715,-0.0015587054783565,0.0015592241289385,-0.0015588440374594,0.0015590617772191,-0.0015588619780209,0.0015590219705096,-0.0015590644424867,0.0015588342705006,-0.0013287421810453,0.0013292710069189,-0.0013292878790076,0.0013287702124816,-0.0014903666319112,0.0014909554967326,-0.0014909974523829,0.0014902701543221,6.0626595640186e-06,-5.4527406329304e-06,-0.00099469121790563,0.0009952877400697,5.9051425309197e-08,5.5835903568591e-07,-0.0010467785324522,0.0010510333060518,-0.0010465838854528,0.0010511937493686,-0.001050614288695,0.0010471919235801,-0.001050448661153,0.0010473440566303,-0.0011103605113318,0.0010998071931809,-0.0010990087151807,0.0011111030370455,0.74641617962313,1473840,32975,0.0061882246285486,0.0061882583383659,0.0041392658653493,22.441691211224,9.4733529689786e-05,9.4733529689786e-05,9.4733529689786e-05,1530072.6023621,0.016653086960973
27648000,0.99996028270167,0.016737049251591,0.0059110896645815,0.0059111188926849,0.0049148406943243,-0.0014901225535051,0.0014903175897092,-5.6509806473079e-06,5.8343743791145e-06,-1.8825695928638e-07,4.2002065310568e-07,-0.001561141604674,0.0015573250896449,-0.001557344148718,0.001561114535411,-0.0015609852686185,0.0015575062465874,-0.001557125065831,0.0015613593022103,-0.0013348435620132,0.0013238764349626,-0.0013234991231453,0.0013351960164405,3.7203071966826e-07,-2.2934589483484e-07,3.5540055770621e-07,-1.5084262635992e-07,-0.0014901418210471,0.0014903147471331,-0.0015589928458234,0.0015595173391244,-0.0015591324195939,0.0015593539658495,-0.001559149145679,0.0015593153962528,-0.0015593525259426,0.0015591267730816,-0.0013290544180183,0.00132959137244,-0.0013296028076851,0.0013290877994914,-0.0014907297829419,0.0014913219462224,-0.0014913596698334,0.0014906374568315,6.0633806768812e-06,-5.453309183177e-06,-0.00099478913526321,0.00099538579516997,5.7700660960768e-08,5.5987488080694e-07,-0.0010469342806343,0.0010511886532052,-0.0010467386772876,0.0010513500332184,-0.0010507704722333,0.0010473468373054,-0.0010506038880329,0.0010474999078513,-0.0011105055921052,0.0010999521639243,-0.0010991526180244,0.0011112492497394,0.7478212623436,1473840,32975,0.0061895495497007,0.0061895833050963,0.0041396750087447,22.556581741335,9.5652653930678e-05,9.5652653930678e-05,9.5652653930678e-05,1528608.3862929,0.016656197286627
27734400,0.99996126988637,0.016737065290601,0.0059110953521729,0.0059111245802758,0.0049148453581521,-0.0014904414263527,0.0014906403916108,-5.6499571144305e-06,5.8373214413613e-06,-1.8560702864315e-07,4.2125197742522e-07,-0.0015614290021591,0.0015576162866283,-0.0015576309615448,0.0015614063255048,-0.0015612731708227,0.0015577969408994,-0.0015574122887605,0.0015616506714533,-0.0013351624605385,0.001324196831492,-0.0013238159959498,0.0013355184463766,3.6962180710711e-07,-2.3035872328525e-07,3.5596612103511e-07,-1.5485252828379e-07,-0.0014904643664261,0.0014906338704061,-0.0015592833063537,0.0015598054238559,-0.0015594243383818,0.0015596405679024,-0.0015594391374619,0.0015596039728625,-0.0015596440520317,0.0015594137925359,-0.0013293733322156,0.0013299118114861,-0.00132992624299,0.0013294036843547,-0.0014910987840238,0.0014916847212478,-0.0014917275440813,0.001491001606233,6.0655633780939e-06,-5.4530766993183e-06,-0.00099488233712274,0.00099548141878003,5.6621974677658e-08,5.6339582309995e-07,-0.001047090269359,0.0010513461692969,-0.001046893126187,0.0010515091008705,-0.0010509270840338,0.0010475036932931,-0.0010507589838572,0.0010476583003735,-0.0011106427475968,0.0011000912949515,-0.0010992878656743,0.0011113904605943,0.74946705351648,1473840,32975,0.0061908774126174,0.0061909111552121,0.0041400693813428,22.671470078791,9.6571760630327e-05,9.6571760630327e-05,9.6571760630327e-05,1527081.9383068,0.01665929855335
27820800,0.99996223920995,0.016737081080233,0.0059111009505381,0.0059111301786404,0.0049148499510542,-0.0014907640235724,0.0014909615472582,-5.6517288540939e-06,5.8376194620271e-06,-1.8635313744683e-07,4.2044889489546e-07,-0.0015617193763232,0.0015579051159278,-0.0015579209939749,0.0015616953649983,-0.0015615643261901,0.0015580855251799,-0.0015577019649885,0.0015619401705895,-0.0013354889264324,0.0013245187645012,-0.0013241391516171,0.0013358431482557,3.6959677174907e-07,-2.3032978743886e-07,3.5901992943104e-07,-1.5760172815256e-07,-0.0014907861848784,0.0014909559255737,-0.0015595718139376,0.0015600959284694,-0.0015597146047729,0.0015599294928431,-0.0015597272826257,0.0015598946447146,-0.001559934512383,0.0015597023877281,-0.0013296942659191,0.0013302388259236,-0.0013302535251237,0.0013297248768219,-0.001491466965382,0.0014920514149749,-0.0014920971476449,0.0014913685561814,6.0658952642491e-06,-5.4547727210003e-06,-0.00099497281338536,0.00099557059362356,5.2976295606004e-08,5.6553884609551e-07,-0.0010472468298372,0.001051500156058,-0.0010470473699635,0.0010516649364188,-0.0010510841831626,0.0010476571573457,-0.0010509143057876,0.0010478135273874,-0.0011107727613646,0.001100219666471,-0.0010994154707474,0.001111521045789,0.75137673614504,1473840,32975,0.0061922095199111,0.0061922435121902,0.0041404447870731,22.786358075267,9.7490864602134e-05,9.7490864602134e-05,9.7490864602134e-05,1525483.9242155,0.016662389470808
27907200,0.99996319082105,0.016737096627082,0.0059111064619748,0.0059111356900764,0.004914854475031,-0.0014910889116483,0.0014912793727696,-5.6569980645259e-06,5.8357269535794e-06,-1.8947702389125e-07,4.1640185163475e-07,-0.0015620103802871,0.001558188897965,-0.0015582111749937,0.0015619798515713,-0.001561856594912,0.001558368840163,-0.0015579923238754,0.0015622247474773,-0.0013358206030505,0.0013248388291623,-0.0013244665215805,0.0013361669654818,3.6878667518341e-07,-2.3025298908032e-07,3.6147089893663e-07,-1.6040973124681e-07,-0.0014911078723253,0.0014912772724387,-0.0015598586522326,0.0015603840207251,-0.0015600033640158,0.0015602160248413,-0.0015600135530628,0.001560182944336,-0.0015602229006141,0.0015599889731867,-0.0013300173004666,0.0013305671955927,-0.0013305824470652,0.0013300481631527,-0.0014918349822248,0.001492416421759,-0.001492465282431,0.0014917348747461,6.0670521793672e-06,-5.4568590220311e-06,-0.00099505994254952,0.00099565679858002,4.9874592143033e-08,5.6753105145636e-07,-0.0010474056433501,0.0010516574774542,-0.0010472041129083,0.0010518237531715,-0.0010512440510601,0.0010478135506033,-0.0010510726391337,0.0010479713811201,-0.0011108974479654,0.0011003417346018,-0.0010995365774101,0.0011116462799308,0.75355989779595,1473840,32975,0.0061935394138101,0.006193574069552,0.0041408071533323,22.901245907639,9.8409967261108e-05,9.8409967261108e-05,9.8409967261108e-05,1523781.5453771,0.016665463087337
27993600,0.99996412487099,0.016737111937346,0.0059111118886386,0.0059111411167399,0.0049148589319679,-0.0014914135333207,0.0014916020583955,-5.659471682092e-06,5.8362418269542e-06,-1.9028057195138e-07,4.1525510733173e-07,-0.0015622983778897,0.0015584741344057,-0.0015584982024512,0.0015622660413601,-0.0015621447655485,0.0015586539568796,-0.0015582794418003,0.001562510857778,-0.0013361533316509,0.0013251664586987,-0.0013247962301322,0.0013364976829336,3.6920364081464e-07,-2.2953372259848e-07,3.6474863582637e-07,-1.6241423678339e-07,-0.0014914309373327,0.0014916015606601,-0.0015601438579468,0.0015606720693811,-0.0015602902662936,0.0015605023904558,-0.0015602986024995,0.0015604711043269,-0.0015605097418522,0.00156027533991,-0.0013303441653025,0.001330900700164,-0.0013309146972648,0.0013303765089678,-0.0014922047085531,0.0014927853028978,-0.0014928349864547,0.0014921040312005,6.0682904334413e-06,-5.4586404621458e-06,-0.00099513988617992,0.00099573626168341,4.6996687293345e-08,5.6990223536976e-07,-0.0010475663243762,0.0010518169888821,-0.0010473629818131,0.0010519849465275,-0.0010514057339505,0.0010479720490716,-0.0010512325884772,0.0010481316302698,-0.0011110122561819,0.0011004548427236,-0.0010996484196759,0.0011117623300574,0.75600938400053,1473840,32975,0.0061948787482953,0.0061949134988938,0.0041411407325436,23.016133596695,9.9329068773561e-05,9.9329068773561e-05,9.9329068773561e-05,1522021.3492346,0.016668526096612
28080000,0.99996504073166,0.016737127003689,0.0059111172279125,0.0059111464560136,0.0049148633197623,-0.0014917087002912,0.0014918991789745,-5.6594936853263e-06,5.83820463829e-06,-1.8989634025171e-07,4.1688949929411e-07,-0.0015625551338383,0.0015587315355503,-0.0015587541632238,0.0015625242793236,-0.0015624008567317,0.0015589118850843,-0.0015585350783874,0.0015627693684006,-0.0013364591961517,0.0013254730961325,-0.0013251006853506,0.0013368061359822,3.7112757169549e-07,-2.288257381316e-07,3.6845127111902e-07,-1.634003369949e-07,-0.0014917257629024,0.0014918990335528,-0.0015603987404657,0.001560931498634,-0.0015605466411903,0.0015607603107488,-0.0015605539287465,0.0015607301237671,-0.0015607665334548,0.0015605327835852,-0.0013306470204636,0.0013312105352267,-0.0013312222832766,0.0013306817776308,-0.0014925448733224,0.0014931275239013,-0.0014931760164824,0.0014924449331164,6.0701334971848e-06,-5.4587802484616e-06,-0.00099518993011136,0.00099578810613694,4.5549555437671e-08,5.7314780861134e-07,-0.0010477039243286,0.0010519556295856,-0.0010474990983878,0.0010521250207231,-0.0010515440537214,0.0010481099096516,-0.001051369264842,0.0010482711630014,-0.0011110918926837,0.0011005361941429,-0.0010997264755579,0.0011118452493042,0.75870349103707,1473840,32975,0.0061961041114304,0.00619613888456,0.0041413550193578,23.116780297969,0.00010013424238375,0.00010013424238375,0.00010013424238375,1520138.9334034,0.016671236044962
28166400,0.99996593768206,0.016737141816257,0.005911122476282,0.005911151704383,0.0049148676355919,-0.0014919694454004,0.0014921630216381,-5.6595454170046e-06,5.841172391934e-06,-1.8865875784539e-07,4.1891463296516e-07,-0.0015627756030019,0.0015589537527645,-0.0015589737023839,0.001562747612864,-0.0015626209529134,0.0015591342815884,-0.0015587541814942,0.0015629929811237,-0.0013367356232823,0.0013257498462025,-0.0013253743197066,0.0013370859472457,3.730588885267e-07,-2.2762309039101e-07,3.7288546244176e-07,-1.6485466836512e-07,-0.0014919864631159,0.0014921626830889,-0.0015606175042406,0.0015611551197587,-0.0015607671130466,0.0015609820523309,-0.0015607727558396,0.0015609536602967,-0.0015609873396116,0.0015607540846034,-0.0013309191886802,0.0013314916705833,-0.00133150037902,0.0013309564732582,-0.0014928505845796,0.0014934354760759,-0.0014934823270315,0.0014927511928761,6.0716525783004e-06,-5.4603005343651e-06,-0.00099520750511851,0.00099580583771173,4.274249611173e-08,5.7621140742159e-07,-0.0010478147365343,0.0010520657578863,-0.0010476080987988,0.0010522371072218,-0.0010516559951787,0.0010482189921382,-0.0010514792554378,0.001048382351764,-0.0011111348058495,0.0011005784678094,-0.0010997665046256,0.0011118899885337,0.76161266579138,1473840,32975,0.0061971892595518,0.0061972235394087,0.004141431190381,23.200144862465,0.00010080115889972,0.00010080115889972,0.00010080115889972,1518130.4699023,0.01667351997224
28252800,0.9999668159404,0.016737156379793,0.0059111276354074,0.0059111568635075,0.0049148718808779,-0.0014922245242554,0.0014924287910253,-5.6546046574825e-06,5.8468117612114e-06,-1.8400948899463e-07,4.2532185399453e-07,-0.0015629885324685,0.0015591763232398,-0.0015591861975628,0.0015629704055097,-0.0015628331182019,0.001559357377097,-0.0015589661771924,0.0015632162323804,-0.0013370084155186,0.0013260333484924,-0.001325646790573,0.0013373698273861,3.7283528422972e-07,-2.2960415996058e-07,3.7505651225476e-07,-1.6963416525202e-07,-0.0014922480152263,0.0014924218275519,-0.0015608348710477,0.0015613730350226,-0.0015609866974232,0.001561197521653,-0.0015609905217022,0.0015611706644664,-0.0015612073815256,0.0015609687876026,-0.0013311955602477,0.0013317715305503,-0.0013317832681044,0.0013312294716175,-0.0014931568259437,0.0014937388290936,-0.0014937896799093,0.0014930521905065,6.0732800717454e-06,-5.4594169935402e-06,-0.00099521780562277,0.00099581863538694,4.0529389722935e-08,5.8102895887696e-07,-0.001047924307357,0.0010521757815657,-0.0010477155216793,0.0010523495546381,-0.0010517660492858,0.0010483287623933,-0.0010515869994373,0.0010484946332483,-0.0011111660369919,0.0011006140085524,-0.0010997970444333,0.0011119257908561,0.76470634537112,1473840,32975,0.0061982666144104,0.0061983005799961,0.0041414820946569,23.282486499287,0.00010145989199429,0.00010145989199429,0.00010145989199429,1516057.0934366,0.01667576256671
28339200,0.99996767577654,0.016737170699156,0.0059111327070175,0.0059111619351162,0.004914876057022,-0.0014924885884325,0.0014926851012147,-5.6578934052578e-06,5.8423198479155e-06,-1.8724999205278e-07,4.209499276256e-07,-0.0015632085617917,0.0015593892931061,-0.0015594063037709,0.0015631827485211,-0.0015630533801775,0.0015595699391513,-0.0015591868347371,0.001563428037345,-0.0013372923245616,0.0013263103460641,-0.0013259317569974,0.0013376450987067,3.7082234536043e-07,-2.3051991403951e-07,3.7537067177179e-07,-1.7316373924731e-07,-0.0014925097065107,0.0014926805527934,-0.0015610521646352,0.0015615883332604,-0.0015612055016368,0.0015614117530846,-0.0015612074020514,0.0015613861966613,-0.001561425621719,0.0015611835835604,-0.0013314751359788,0.001332051685239,-0.0013320669672152,0.0013315070748219,-0.0014934635263632,0.001494039823587,-0.0014940947809629,0.0014933542803096,6.0729664626279e-06,-5.4585316503781e-06,-0.00099522499205277,0.00099582606518571,3.8474822207798e-08,5.8293412045576e-07,-0.0010480358298124,0.0010522857136605,-0.001047825597258,0.0010524609413255,-0.0010518770737983,0.001048439151802,-0.0010516967524707,0.0010486063813459,-0.0011111910114334,0.0011006418515632,-0.001099823189479,0.0011119525971773,0.76795500368867,1473840,32975,0.0061993429446684,0.0061993769977506,0.0041415154618665,23.364735627525,0.00010211788502019,0.00010211788502019,0.00010211788502019,1513938.2415311,0.016677985674542
28425600,0.99996851746366,0.016737184778621,0.0059111376926434,0.0059111669207409,0.0049148801652369,-0.0014927543027335,0.0014929393448066,-5.6639669021614e-06,5.836823271277e-06,-1.9382892968669e-07,4.1601195072169e-07,-0.0015634299855022,0.0015595985653799,-0.0015596275804772,0.0015633921895408,-0.0015632744221502,0.0015597799105515,-0.0015594075715076,0.0015636382666626,-0.0013375806393509,0.0013265865373151,-0.0013262188692557,0.0013379218772516,3.7244234267378e-07,-2.3058497220241e-07,3.7775799571653e-07,-1.7347431157206e-07,-0.0014927687533546,0.0014929415058021,-0.0015612659399953,0.0015618054242894,-0.0015614201908876,0.0015616282204719,-0.0015614218284029,0.0015616029343638,-0.0015616408787615,0.0015613993757015,-0.0013317549734531,0.0013323358320096,-0.0013323496827358,0.0013317884138251,-0.0014937650121561,0.0014943438207224,-0.0014943979264295,0.001493656301901,6.0725159226732e-06,-5.4595266321933e-06,-0.00099522941856194,0.00099582893190989,3.6344232399795e-08,5.833097519148e-07,-0.0010481484757352,0.0010523961329016,-0.001047937231658,0.0010525720339786,-0.0010519898420805,0.0010485494350053,-0.0010518086163675,0.0010487174142639,-0.0011112123550517,0.0011006620694866,-0.0010998435011579,0.0011119730621653,0.77133100424844,1473840,32975,0.0062004183773397,0.0062004525175921,0.0041415336890489,23.446975746008,0.00010277580596806,0.00010277580596806,0.00010277580596806,1511786.6412726,0.016680191578078
28512000,0.9999693412739,0.016737198621894,0.0059111425936217,0.0059111718217182,0.0049148842065543,-0.0014930062445372,0.0014932066785445,-5.6569942226569e-06,5.8451319918318e-06,-1.87252024864e-07,4.2477313789773e-07,-0.0015636376040167,0.001559820526791,-0.001559834797276,0.0015636145596796,-0.0015634813107316,0.0015600024916496,-0.0015596140226359,0.0015638613980887,-0.0013378562655099,0.0013268765325369,-0.0013264931005368,0.0013382134675778,3.7247655796274e-07,-2.326477611925e-07,3.807632056997e-07,-1.7834338765635e-07,-0.0014930292558069,0.0014932000194789,-0.0015614799032881,0.0015620207105508,-0.0015616367732054,0.0015618407897499,-0.001561636536991,0.0015618177599634,-0.0015618583692985,0.0015616112214251,-0.0013320354021546,0.0013326216438491,-0.0013326378557652,0.0013320659090028,-0.001494067412167,0.0014946436244712,-0.0014947025682642,0.0014939539257931,6.0735646241785e-06,-5.4598218735927e-06,-0.00099522942651876,0.00099582976636523,3.2905092143728e-08,5.8769731724131e-07,-0.0010482610532111,0.0010525074278124,-0.0010480472608379,0.0010526858405205,-0.0010521028368657,0.0010486602057714,-0.00105191906611,0.001048830823414,-0.0011112274919638,0.0011006792067181,-0.0010998569975715,0.0011119912242033,0.77480855663949,1473840,32975,0.0062014923701848,0.006201525972863,0.0041415385779237,23.529214939096,0.00010343371951277,0.00010343371951277,0.00010343371951277,1509613.2049362,0.01668238036765
28598400,0.99997014747804,0.016737212202112,0.0059111474011337,0.0059111766292287,0.0049148881717496,-0.001493261534926,0.0014934692877171,-5.65445207444e-06,5.8499396368523e-06,-1.8452035251221e-07,4.2926603259395e-07,-0.0015638486729372,0.0015600376164999,-0.0015600450698554,0.0015638323427413,-0.0015636917869034,0.0015602200455092,-0.0015598235929859,0.0015640797352553,-0.0013381368668411,0.0013271626910608,-0.0013267711381379,0.0013385017524009,3.7293176072681e-07,-2.3400846969214e-07,3.8340368491184e-07,-1.8202980730575e-07,-0.0014932886971219,0.0014934584498004,-0.0015616930547309,0.0015622354709348,-0.001561852011057,0.0015620535980205,-0.0015618503401177,0.001562031992487,-0.0015620743168312,0.0015618233259162,-0.0013323163904527,0.0013329072117929,-0.0013329252884652,0.0013323452290064,-0.001494367507882,0.0014949426774487,-0.0014950046613749,0.0014942511189968,6.0758544496964e-06,-5.4598081833999e-06,-0.00099522602917637,0.00099582856371813,3.079477055428e-08,5.9187369510907e-07,-0.0010483729291267,0.0010526201592774,-0.0010481570712189,0.0010528007023639,-0.0010522154192296,0.001048772133402,-0.0010520295778914,0.0010489448912606,-0.0011112382199721,0.0011006922360718,-0.0010998656389881,0.001112006498254,0.77665751279324,1473840,32975,0.0062025634932858,0.0062025970378974,0.0041415322126954,23.611454784155,0.00010409163827324,0.00010409163827324,0.00010409163827324,1507426.946966,0.016684552373878
28684800,0.99997093634533,0.016737225477463,0.005911152101259,0.0059111813293525,0.0049148920468515,-0.0014934522841192,0.0014936452647838,-5.6614115204005e-06,5.8427129320196e-06,-1.8957594742058e-07,4.1929856880051e-07,-0.0015640341317372,0.0015602091211541,-0.0015602304717658,0.0015640048640116,-0.0015638775723064,0.0015603904959814,-0.0015600111488285,0.0015642497744487,-0.0013383213780638,0.0013273340153778,-0.0013269585934785,0.0013386719023229,3.7078253560003e-07,-2.312406197735e-07,3.8245527805199e-07,-1.8119187628486e-07,-0.0014934721316871,0.0014936418519397,-0.001561873205909,0.0015624137571718,-0.0015620316704403,0.001562231204087,-0.0015620297353776,0.0015622115763814,-0.0015622519527941,0.0015620038156192,-0.0013324960082297,0.0013330857105822,-0.0013331002683597,0.0013325255495702,-0.0014945486429933,0.0014951191135947,-0.00149517895646,0.0014944340081853,6.0803700778902e-06,-5.4552647159385e-06,-0.00099518585131622,0.0009957975532219,3.6717901319878e-08,5.9625251938043e-07,-0.0010484269888248,0.0010526835489114,-0.0010482123377523,0.0010528640600875,-0.0010522695448898,0.0010488354168079,-0.001052083925357,0.0010490075986018,-0.0011111979124617,0.0011006601310275,-0.0010998263717534,0.0011119756585059,0.77589798401878,1473840,32975,0.0062033218528521,0.006203355627023,0.004141386482455,23.693695695155,0.00010474956556124,0.00010474956556124,0.00010474956556124,1506441.3739765,0.016685946633706
28771200,0.99997170814338,0.016737238436489,0.0059111566901182,0.0059111859182113,0.0049148958281592,-0.0014935380661877,0.0014937288149209,-5.6625577270303e-06,5.8414911737671e-06,-1.8965910167416e-07,4.1715238249521e-07,-0.0015641808605418,0.0015603542978101,-0.0015603768683248,0.0015641499237444,-0.0015640251856823,0.0015605349574074,-0.0015601582224417,0.001564394093464,-0.0013383429217172,0.0013273529144229,-0.0013269798440337,0.0013386895414078,3.7089513948285e-07,-2.2906051726552e-07,3.8241732487867e-07,-1.7872501153536e-07,-0.0014935556154236,0.0014937278151005,-0.0015620183300543,0.0015625605046775,-0.0015621766965591,0.0015623787039221,-0.0015621740546387,0.0015623583675463,-0.0015623957935572,0.0015621517276876,-0.001332515217044,0.0013331053143473,-0.0013331170440167,0.0013325480359387,-0.0014945768128166,0.0014951479852717,-0.0014952050780873,0.0014944654839408,6.0811709640041e-06,-5.4544065155251e-06,-0.00099513363225081,0.00099574665456591,3.8528601977774e-08,5.9562521762081e-07,-0.0010484018109896,0.0010526603344543,-0.0010481879025534,0.0010528400318944,-0.0010522444815474,0.0010488122721576,-0.0010520593742847,0.0010489834840878,-0.0011111502661483,0.0011006137888982,-0.0010997787565356,0.0011119286995827,0.77417287645691,1473840,32975,0.0062036720569713,0.0062037060689001,0.0041411728741106,23.775936874458,0.00010540749499566,0.00010540749499566,0.00010540749499566,1507048.1270434,0.016686441400587
28857600,0.99997246427831,0.016737251175477,0.0059111612002401,0.0059111904283331,0.0049148995469034,-0.0014936606393656,0.0014938549591201,-5.6611298866443e-06,5.843729135051e-06,-1.8705747066955e-07,4.1807267771451e-07,-0.0015643804660941,0.0015605577959123,-0.0015605760737709,0.0015643534884324,-0.0015642254532687,0.0015607377506759,-0.0015603579173283,0.0015645971035297,-0.001338380094921,0.0013273921986356,-0.0013270156452831,0.0013387292152425,3.7207076921536e-07,-2.2617075896033e-07,3.831494198804e-07,-1.7517840371951e-07,-0.0014936778693439,0.0014938542020581,-0.0015622183363818,0.0015627633636948,-0.0015623761044963,0.0015625825001706,-0.001562373417003,0.0015625615395937,-0.0015625945481348,0.00156235598087,-0.0013325518355674,0.0013331436214939,-0.0013331510410224,0.0013325897269333,-0.0014946386007917,0.0014952128246521,-0.0014952653682023,0.0014945323156805,6.081551692551e-06,-5.4548441026171e-06,-0.0009951382819939,0.00099575088830291,3.9614469612087e-08,5.9395078724012e-07,-0.0010484032136084,0.001052662344957,-0.0010481901631757,0.0010528412607278,-0.0010522460982654,0.0010488140410956,-0.0010520618763582,0.0010489842752627,-0.0011111767474768,0.0011006382696917,-0.001099804091133,0.0011119542050122,0.77679404084815,1473840,32975,0.0062041868910419,0.006204220745115,0.00414119138104,23.88351031184,0.00010626808249471,0.00010626808249471,0.00010626808249471,1508175.0237535,0.016687506368283
28944000,0.99997320618297,0.016737263531343,0.0059111655776257,0.0059111948057185,0.0049149031479993,-0.0014940381198519,0.0014942444863763,-5.6569376688213e-06,5.8515345077625e-06,-1.8121228482776e-07,4.2457550405036e-07,-0.0015647227076016,0.0015609112208562,-0.0015609178897713,0.0015647075957374,-0.0015645682476687,0.0015610911895681,-0.0015606990743401,0.0015649520744192,-0.0013387551536041,0.001327774296563,-0.0013273858341216,0.0013391168670918,3.7158374579193e-07,-2.2731761368059e-07,3.8404993129081e-07,-1.7733922743452e-07,-0.0014940621183401,0.0014942370248237,-0.0015625665438004,0.0015631104300561,-0.0015627242615806,0.0015629292239602,-0.0015627214175023,0.0015629090931977,-0.00156294373467,0.0015627021339155,-0.0013329292609132,0.0013335234591929,-0.0013335332610072,0.0013329664641948,-0.0014950767101487,0.0014956501970817,-0.0014957054372853,0.0014949675848391,6.080409926784e-06,-5.4595611895225e-06,-0.0009952563013421,0.00099586347833843,3.5256431531041e-08,5.9246168705749e-07,-0.0010486004166269,0.0010528547585106,-0.0010483860296844,0.0010530343827762,-0.001052444280285,0.0010490053171207,-0.0010522596410587,0.0010491765563155,-0.0011113514412839,0.001100804141646,-0.0010999749431287,0.0011121240864214,0.76796940256575,1473840,32975,0.0062057740741552,0.0062058080595123,0.0041416733237604,24.019404196379,0.00010735523357103,0.00010735523357103,0.00010735523357103,1506272.8139159,0.016691224303473
29030400,0.99997393402904,0.016737275509896,0.0059111698241053,0.0059111990521974,0.0049149066335929,-0.0014939554377976,0.0014941442723779,-5.6647908794224e-06,5.8422301082728e-06,-1.8741419387502e-07,4.1232467096008e-07,-0.0015648739112443,0.0015610459511433,-0.0015610680110838,0.0015648432145019,-0.0015647191370984,0.0015612244620766,-0.0015608522847929,0.0015650842978973,-0.001338456277828,0.0013274605525499,-0.0013270920107234,0.0013387987992437,3.698810815109e-07,-2.2294181948359e-07,3.8050544253121e-07,-1.7139587059475e-07,-0.0014939694109788,0.0014941466807999,-0.0015627104839678,0.0015632539617052,-0.001562867537213,0.0015630737829769,-0.0015628647373223,0.0015630531538208,-0.0015630833328644,0.0015628500027309,-0.0013326275015921,0.0013332145029828,-0.0013332169060028,0.0013326668662346,-0.0014947701257783,0.0014953402856253,-0.0014953902436781,0.0014946670916572,6.0843408121349e-06,-5.4548895427065e-06,-0.00099526539570505,0.00099588060683252,4.4459259255765e-08,5.9255864326243e-07,-0.0010484691456463,0.0010527335122882,-0.0010482586914657,0.0010529108053867,-0.0010523129988501,0.0010488840386483,-0.0010521304506913,0.0010490520461938,-0.0011113661072559,0.0011008241707355,-0.0010999897639143,0.0011121437646151,0.75893556352056,1473840,32975,0.006205396604716,0.0062054302717834,0.0041417230880244,24.156980834202,0.00010845584667361,0.00010845584667361,0.00010845584667361,1512223.5592686,0.016690505067067
29116800,0.99997464792013,0.01673728716533,0.0059111739577506,0.0059112031858437,0.004914910021736,-0.001493871147211,0.0014940568368728,-5.666431966627e-06,5.8414102008948e-06,-1.8702957793933e-07,4.0836015746823e-07,-0.001565051321713,0.0015612210653305,-0.0015612447742351,0.0015650186686131,-0.0015648976781532,0.0015613983748213,-0.0015610307806372,0.0015652579656777,-0.0013381094715685,0.001327109584965,-0.001326744591673,0.0013384472733404,3.6822822346002e-07,-2.2050560439779e-07,3.7566150917461e-07,-1.6583647878844e-07,-0.0014938829555653,0.0014940608808719,-0.0015628883534965,0.0015634285057277,-0.0015630429457022,0.0015632513386823,-0.0015630417207568,0.0015632283154819,-0.0015632569885206,0.0015630292691647,-0.0013322819331363,0.0013328593145129,-0.0013328603618506,0.0013323236734062,-0.0014944782117891,0.0014950472318671,-0.0014950935015242,0.0014943801384051,6.0884500320718e-06,-5.451888304521e-06,-0.00099531585286587,0.00099593756875142,5.2749709205063e-08,5.9065387939066e-07,-0.0010483085985903,0.0010525825613603,-0.0010481015010086,0.0010527570095417,-0.0010521523548747,0.0010487327631809,-0.0010519729040868,0.0010488972188854,-0.0011114673435697,0.0011009278659433,-0.0011000903461007,0.0011122493589125,0.75302572953658,1473840,32975,0.0062050426927991,0.0062050752660024,0.0041419414318296,24.294708206404,0.00010955766565123,0.00010955766565123,0.00010955766565123,1518471.9474146,0.016690004346569
29203200,0.99997534795714,0.016737298597751,0.0059111780120626,0.0059112072401561,0.0049149133455328,-0.0014939345309101,0.0014941202863751,-5.6688979375309e-06,5.8437847496468e-06,-1.8483893483736e-07,4.0652658871972e-07,-0.0015652984840852,0.0015614686698238,-0.0015614909639652,0.001565267370828,-0.0015651471219716,0.0015616443795924,-0.0015612778237639,0.001565505698833,-0.0013379625285171,0.0013269552785837,-0.0013265916242988,0.001338298818624,3.6775868656346e-07,-2.1687033676908e-07,3.7375097936387e-07,-1.6062854144116e-07,-0.0014939448998427,0.0014941260669604,-0.0015631362844446,0.0015636753943078,-0.0015632879546988,0.0015635010643101,-0.0015632876814738,0.0015634765433575,-0.0015635009032206,0.0015632798733213,-0.0013321318301245,0.0013327069642338,-0.001332704777035,0.0013321792100416,-0.0014944223545622,0.0014949936025614,-0.0014950343400565,0.0014943299036432,6.088066319995e-06,-5.4567593743429e-06,-0.00099542057412968,0.00099603725724501,5.3677046268494e-08,5.8424851435152e-07,-0.0010482501938525,0.0010525232535586,-0.0010480450957336,0.0010526951335457,-0.0010520953377453,0.0010486722163467,-0.0010519187095265,0.0010488340985268,-0.001111658373505,0.0011011065811481,-0.0011002766470401,0.0011124326505608,0.75331741327549,1473840,32975,0.0062053064315478,0.0062053396192299,0.0041423635044471,24.432449066617,0.00011065959253293,0.00011065959253293,0.00011065959253293,1522396.789182,0.016690969145328
29289600,0.99997603424387,0.016737309685005,0.0059111819462362,0.0059112111743302,0.004914916564439,-0.0014943100732114,0.0014945005205268,-5.6689506795231e-06,5.8479827968215e-06,-1.8358975725532e-07,4.1078418349802e-07,-0.0015656682869126,0.0015618418318173,-0.0015618602696371,0.001565640727141,-0.0015655176963355,0.001562018007821,-0.0015616451989246,0.001565881161482,-0.001338286704483,0.0013272779585049,-0.0013269087708845,0.0013386282387757,3.7029880337494e-07,-2.1724438531842e-07,3.7550129694296e-07,-1.5987946172806e-07,-0.0014943220223308,0.0014945057063612,-0.0015635062840588,0.001564047729359,-0.0015636567413444,0.0015638745593831,-0.001563657499485,0.0015638485263651,-0.0015638716600335,0.0015636511599343,-0.0013324533660623,0.0013330326065931,-0.0013330308023091,0.001332503271808,-0.0014948566019996,0.00149543453119,-0.0014954734630029,0.0014947659052921,6.0862497357146e-06,-5.4621578899707e-06,-0.00099558741550894,0.00099619738677321,4.9644019386226e-08,5.8073214563617e-07,-0.0010484181193643,0.0010526862371254,-0.0010482120867787,0.0010528573836181,-0.0010522644536218,0.0010488342663319,-0.001052088775441,0.0010489965337973,-0.001111929318875,0.0011013671676377,-0.0011005438006568,0.0011126959544979,0.74531810434118,1473840,32975,0.0062068709456184,0.0062069061703576,0.004143044774755,24.570191997928,0.00011176153598342,0.00011176153598342,0.00011176153598342,1521121.7690061,0.016694845349145
29376000,0.99997670688744,0.016737320477108,0.0059111857770614,0.005911215005156,0.0049149196948902,-0.0014942536769145,0.0014944410686839,-5.6699709887713e-06,5.8463683080589e-06,-1.8289359617053e-07,4.0641650667737e-07,-0.0015658370096934,0.0015620079567667,-0.0015620280699979,0.0015658077238209,-0.0015656854957441,0.0015621827735002,-0.001561815536906,0.0015660457096507,-0.0013380022561261,0.0013269925569636,-0.0013266284328461,0.0013383405905856,3.6554432211711e-07,-2.1691338199869e-07,3.6891953347261e-07,-1.5766313657398e-07,-0.0014942658886154,0.0014944450804044,-0.0015636775165101,0.0015642109992303,-0.0015638263408189,0.0015640395183004,-0.0015638276216381,0.0015640133346947,-0.0015640387738269,0.0015638191933241,-0.0013321746025423,0.0013327420586334,-0.0013327415422092,0.0013322217435577,-0.001494607908531,0.0014951778998809,-0.0014952187964702,0.0014945156674917,6.0919795772676e-06,-5.4569000636866e-06,-0.00099566866559583,0.00099628921086604,5.9168955771428e-08,5.8248174192826e-07,-0.0010483252846872,0.0010526059954669,-0.0010481225955607,0.0010527755235872,-0.0010521714854615,0.0010487533774461,-0.0010519975005143,0.0010489132240855,-0.0011120557412937,0.0011015010652853,-0.0011006701253706,0.0011128314244948,0.74020403330511,1473840,32975,0.0062066325430865,0.0062066658823663,0.004143399782566,24.707934565783,0.00011286347652626,0.00011286347652626,0.00011286347652626,1527084.895248,0.016694717937652
29462400,0.99997736599823,0.016737330895421,0.0059111894781429,0.0059112187062378,0.0049149227110405,-0.0014943401744717,0.0014945255762981,-5.6721156561479e-06,5.8462144050067e-06,-1.820814302105e-07,4.0367004118111e-07,-0.0015660917541271,0.0015622617808554,-0.00156228244487,0.0015660618537773,-0.0015659418581928,0.0015624353134038,-0.0015620708508727,0.0015662988025364,-0.0013378882167509,0.001326872525964,-0.0013265116808663,0.0013382229328105,3.6302416694851e-07,-2.1579433295349e-07,3.6569922417758e-07,-1.5591874570442e-07,-0.0014943520193897,0.0014945299699109,-0.0015639339371786,0.001564462961561,-0.001564080626621,0.0015642934816446,-0.0015640826084419,0.0015642668106674,-0.0015642920779469,0.0015640743080098,-0.0013320598901384,0.0013326223571143,-0.0013326224873079,0.0013321070395892,-0.0014945902855271,0.0014951572500066,-0.0014951979547988,0.0014944984875814,6.0907445192056e-06,-5.4599226039281e-06,-0.00099579089118727,0.00099640731611089,5.9681943964697e-08,5.7771346434575e-07,-0.0010482910442643,0.0010525701164443,-0.0010480899500573,0.0010527377326526,-0.0010521378348346,0.0010487170461891,-0.0010519657908639,0.001048875174312,-0.0011122663634545,0.0011017040800228,-0.0011008788061535,0.0011130355605569,0.72939130311609,1473840,32975,0.0062069876222925,0.0062070209922223,0.0041438967409706,24.845676602371,0.00011396541281897,0.00011396541281897,0.00011396541281897,1530697.3343795,0.016695944221697
29548800,0.99997801168989,0.016737341058604,0.0059111930892663,0.0059112223173612,0.0049149256519769,-0.0014940828574949,0.0014942571118581,-5.6780567242835e-06,5.8414978569018e-06,-1.826927331662e-07,3.9229341539775e-07,-0.0015661931577183,0.001562354169581,-0.0015623823999168,0.0015661554587924,-0.0015660446460632,0.0015625242156556,-0.0015621750768284,0.0015663879040692,-0.0013372810767917,0.001326253083046,-0.0013259070821601,0.001337602670258,3.5954918882438e-07,-2.0851526551247e-07,3.6304267545553e-07,-1.496732287756e-07,-0.0014940870032475,0.001494268396774,-0.0015640318223693,0.0015645591832754,-0.0015641771076107,0.0015643911269133,-0.0015641775670455,0.0015643659275785,-0.0015643841742477,0.0015641768658018,-0.0013314481717585,0.0013320078747273,-0.0013320002095956,0.0013315029156085,-0.0014940223528122,0.0014945836484844,-0.0014946187298934,0.001493937850576,6.097316794333e-06,-5.4554755602729e-06,-0.0009958714077802,0.00099649831022324,6.9306880691781e-08,5.7915871527824e-07,-0.0010480573868499,0.0010523496427419,-0.0010478597685889,0.0010525155722128,-0.001051904528979,0.0010484953967372,-0.0010517344184217,0.0010486509601089,-0.0011124003615458,0.0011018438862735,-0.001101011568304,0.0011131784840595,0.72638015516743,1473840,32975,0.0062059015104581,0.0062059332101298,0.0041442456817722,24.983418920861,0.00011506735136689,0.00011506735136689,0.00011506735136689,1540190.1271078,0.016694086429461
29635200,0.99997864355726,0.016737351059745,0.0059111966413735,0.0059112258694685,0.0049149285489034,-0.0014942458957466,0.001494424993294,-5.6773550566605e-06,5.8448703867743e-06,-1.7723267809219e-07,3.9280455292441e-07,-0.0015664979074534,0.0015626657754397,-0.0015626880521252,0.0015664676053952,-0.0015663540388774,0.0015628342348236,-0.0015624815649325,0.0015666995056264,-0.0013372035517117,0.0013261719882151,-0.0013258231805315,0.0013375273188995,3.5608259009061e-07,-2.0707808115656e-07,3.5756863763906e-07,-1.4703398618341e-07,-0.0014942541567023,0.0014944331551746,-0.0015643448015031,0.0015648622150533,-0.0015644839144861,0.0015646993067436,-0.001564488608319,0.0015646729416535,-0.0015646914038118,0.0015644849527119,-0.0013313737044375,0.0013319275399874,-0.0013319203041884,0.0013314258117124,-0.0014941631647815,0.0014947242459399,-0.0014947553872393,0.001494078003255,6.0850053443458e-06,-5.4687991973494e-06,-0.00099600430658882,0.0009966070246003,6.1589151774513e-08,5.6211846245503e-07,-0.0010480126995028,0.0010522859312744,-0.0010478177068863,0.0010524468213092,-0.001051861224598,0.0010484317805161,-0.0010516952230583,0.0010485843856152,-0.0011127026770445,0.0011021188128603,-0.0011013138196918,0.0011134520105568,0.73052675605413,1473840,32975,0.0062065875331598,0.0062066212820159,0.0041447473723147,25.107154404899,0.00011605723523919,0.00011605723523919,0.00011605723523919,1542153.0813438,0.016695992991953
29721600,0.99997926123348,0.016737360895034,0.0059112001332261,0.0059112293613208,0.0049149314004866,-0.0014948254648233,0.0014950050736571,-5.679190430452e-06,5.8471906022405e-06,-1.7750787881612e-07,3.9363085015071e-07,-0.0015668776146609,0.0015630442586501,-0.0015630664021684,0.0015668474609976,-0.0015667333932583,0.001563213068115,-0.0015628595322468,0.0015670797451392,-0.0013379389107215,0.0013269040673743,-0.0013265544618565,0.0013382635668039,3.5670309669806e-07,-2.075567158808e-07,3.5767406698298e-07,-1.4699821501305e-07,-0.0014948339092799,0.0014950130516876,-0.0015647236384041,0.0015652415587086,-0.0015648627460439,0.0015650786460927,-0.0015648677843683,0.0015650519341989,-0.0015650706083372,0.0015648639035807,-0.0013321075551632,0.0013326613327846,-0.0013326542529452,0.0013321593804936,-0.0014949364611556,0.0014954988600139,-0.0014955297820311,0.0014948513313608,6.0861494770084e-06,-5.4718419173917e-06,-0.00099615194460878,0.00099675278877849,6.0627054193551e-08,5.6121897404387e-07,-0.0010483613364161,0.0010526341011784,-0.0010481663348702,0.0010527950091609,-0.0010522112754252,0.001048778546478,-0.0010520452629746,0.001048931165788,-0.0011129092314762,0.001102319343277,-0.0011015161981923,0.0011136566281502,0.73490041921596,1473840,32975,0.006208986831926,0.0062090205796719,0.0041453622072836,25.216462851294,0.00011693170281035,0.00011693170281035,0.00011693170281035,1536427.1580029,0.016701498075444
29808000,0.99997986488748,0.016737370567806,0.0059112035661035,0.0059112327941979,0.0049149342075042,-0.0014953819131645,0.0014955599509657,-5.6829218223886e-06,5.8485973202376e-06,-1.8036552951579e-07,3.9593154003729e-07,-0.0015672630258815,0.0015634257859305,-0.0015634508010871,0.0015672294184087,-0.0015671193667451,0.0015635960853478,-0.0015632413703349,0.0015674646483682,-0.0013386173535383,0.001327573518039,-0.001327223485797,0.0013389393232483,3.607883414231e-07,-2.0849170149607e-07,3.6246231077768e-07,-1.4823702642561e-07,-0.0014953878728318,0.0014955708433424,-0.0015651033263719,0.0015656279663966,-0.0015652438668265,0.001565464618278,-0.0015652475351332,0.0015654366090943,-0.0015654534677157,0.0015652466030331,-0.0013327752432429,0.0013333380409873,-0.0013333310392188,0.0013328296659294,-0.0014956795219309,0.0014962497537963,-0.0014962792045108,0.0014955957761239,6.0865441161519e-06,-5.4760362882925e-06,-0.00099630324256125,0.00099690016459947,5.5424676069897e-08,5.6140908074795e-07,-0.0010486693143065,0.001052938549963,-0.0010484716764908,0.0010531003985907,-0.0010525210939497,0.001049081875003,-0.0010523542640892,0.0010492360541672,-0.0011131326380022,0.0011025360658966,-0.0011017333830558,0.0011138766763137,0.73942731460174,1473840,32975,0.0062112862185682,0.0062113208537005,0.0041459878770008,25.324908821206,0.00011779927056964,0.00011779927056964,0.00011779927056964,1531003.1593327,0.016706811951424
29894400,0.99998045471884,0.016737380080049,0.005911206940707,0.0059112361688005,0.0049149369705415,-0.0014959250565018,0.0014960923352548,-5.6906459931505e-06,5.8456279551324e-06,-1.8855047649966e-07,3.9300083499349e-07,-0.0015676308526258,0.0015637799745032,-0.001563817330374,0.0015675851777529,-0.0015674857431862,0.001563951717339,-0.0015636063590708,0.0015678223556133,-0.0013392886773823,0.0013282320159388,-0.001327891498357,0.0013396039248441,3.653578161262e-07,-2.0920580252966e-07,3.6778725303541e-07,-1.4921768517842e-07,-0.0014959235914797,0.0014961105568913,-0.0015654602660352,0.0015659925000665,-0.001565602677643,0.0015658270812026,-0.001565606377095,0.0015657998172351,-0.0015658143499286,0.0015656073290718,-0.0013334368127808,0.0013340088642823,-0.0013339993271731,0.0013334938371132,-0.0014963892514048,0.0014969662955533,-0.0014969951251473,0.0014963075848042,6.0914794958377e-06,-5.4758867825815e-06,-0.00099644873730774,0.00099705131216563,5.504216051669e-08,5.6736718762587e-07,-0.0010489905309069,0.0010532652777104,-0.0010487907002046,0.0010534291381123,-0.0010528438372804,0.0010494069009896,-0.0010526749441177,0.0010495631352175,-0.0011133346839853,0.0011027404808056,-0.0011019317367783,0.0011140865598253,0.74408184353536,1473840,32975,0.0062135114425731,0.0062135458789461,0.0041466091081205,25.433276070362,0.0001186662085629,0.0001186662085629,0.0001186662085629,1525910.2387513,0.016711969456312
29980800,0.99998103092988,0.016737389469378,0.0059112102696495,0.0059112394977416,0.0049149397019865,-0.0014964414403649,0.0014966138225987,-5.6908668281487e-06,5.8512902554771e-06,-1.884556236885e-07,3.9802774436177e-07,-0.0015679802204879,0.0015641309894106,-0.0015641649560843,0.001567937760802,-0.001567833787388,0.0015643040130086,-0.0015639520565171,0.001568176693722,-0.0013399318245484,0.0013288761043987,-0.0013285279631382,0.0013402538264013,3.6405065556411e-07,-2.1545891073723e-07,3.6761734921888e-07,-1.5639538832787e-07,-0.0014964462976371,0.0014966257488037,-0.0015658122196938,0.0015663408436963,-0.0015659569048095,0.0015661732832204,-0.0015659599319297,0.0015661466196977,-0.0015661703959433,0.0015659516723769,-0.0013340814240618,0.0013346514288945,-0.0013346509121875,0.0013341296107233,-0.0014970748623533,0.0014976472494362,-0.001497686079775,0.0014969827727122,6.0977725294166e-06,-5.4754348369105e-06,-0.00099659507496565,0.00099720409682285,5.4770831031679e-08,5.741630581459e-07,-0.0010493085866635,0.0010535889108606,-0.0010491060998353,0.0010537553139723,-0.0010531635189583,0.0010497287149551,-0.0010529923969406,0.0010498870950442,-0.0011135309008058,0.0011029397610453,-0.0011021223640968,0.0011142923679573,0.75169596709191,1473840,32975,0.006215658724942,0.0062156932165985,0.0041472352873063,25.541634468566,0.00011953307574852,0.00011953307574852,0.00011953307574852,1521100.6059679,0.016716973789928
30067200,0.99998159372336,0.01673739859277,0.0059112135053629,0.0059112427334537,0.0049149423539537,-0.0014970685013766,0.0014972623651595,-5.6844935756829e-06,5.8668357402151e-06,-1.7977154543498e-07,4.1051886500774e-07,-0.0015683537937159,0.0015645205671052,-0.0015645349137659,0.0015683313077331,-0.0015682044119333,0.0015646953345994,-0.0015643212305035,0.001568570900486,-0.0013407678003823,0.0013297275396339,-0.001329356204612,0.0013411130982594,3.63961826324e-07,-2.1936508496244e-07,3.6958117954868e-07,-1.6296210106231e-07,-0.0014970861065437,0.0014972610025266,-0.0015661939808005,0.0015667223157752,-0.0015663414657253,0.0015665511583126,-0.0015663439553746,0.0015665272248592,-0.0015665563363898,0.0015663293407643,-0.0013349243473002,0.0013354963777276,-0.0013355003019575,0.0013349661769899,-0.0014979395323104,0.001498508793588,-0.0014985536897472,0.0014978401277407,6.0984693177362e-06,-5.4844624357765e-06,-0.00099677902249084,0.00099737953365452,4.6262678001208e-08,5.7474240229922e-07,-0.0010497540540655,0.0010540257577085,-0.0010495492049708,0.00105419575975,-0.0010536123203709,0.0010501619332912,-0.0010534374230394,0.0010503237554755,-0.0011137591013163,0.0011031533420292,-0.0011023414092417,0.001114516379513,0.74778157811606,1473840,32975,0.0062182975839989,0.0062183309564176,0.0041479884579358,25.649994367163,0.0001203999549373,0.0001203999549373,0.0001203999549373,1514395.5393415,0.016723106326008
30153600,0.99998214330189,0.016737407372534,0.0059112166218533,0.0059112458499428,0.0049149449007383,-0.0014970917997426,0.0014972884285722,-5.6830177430472e-06,5.86802933992e-06,-1.761152340214e-07,4.0922789972904e-07,-0.0015685119830553,0.0015646827913692,-0.0015646925953329,0.0015684941505565,-0.0015683630447194,0.0015648563545712,-0.0015644810150603,0.0015687311583836,-0.0013406550528371,0.0013296175738153,-0.0013292462135579,0.0013410012155477,3.6213236987868e-07,-2.1627725809696e-07,3.6653212691683e-07,-1.5898773692159e-07,-0.001497110347733,0.0014972863300974,-0.0015663559197218,0.0015668823861493,-0.0015665019303901,0.0015667124789461,-0.0015665047781295,0.0015666879751233,-0.0015667144531769,0.001566493042479,-0.00133481595995,0.0013353820744265,-0.0013353829278766,0.0013348599194711,-0.0014978545449676,0.0014984204488746,-0.0014984618076015,0.0014977591908805,6.1004893059999e-06,-5.4823220301415e-06,-0.00099679154761943,0.00099739618309044,5.2114667873375e-08,5.7357722755315e-07,-0.0010496872749603,0.00105396507841,-0.0010494853093672,0.0010541329971898,-0.0010535454081249,0.0010501012497346,-0.0010533724390247,0.0010502607793285,-0.0011137852867936,0.0011031817792115,-0.0011023676076035,0.0011145433701218,0.73690064253794,1473840,32975,0.0062184001099511,0.0062184339125863,0.0041480471149357,25.758354267295,0.00012126683413836,0.00012126683413836,0.00012126683413836,1517293.8986229,0.016723374009322
30240000,0.99998267986798,0.016737415900545,0.0059112196497391,0.0059112488778285,0.0049149473729776,-0.0014967827988833,0.0014969757255004,-5.6843624107046e-06,5.8655266172984e-06,-1.7270943288949e-07,4.0165828274182e-07,-0.0015685554554252,0.0015647263267108,-0.0015647357340804,0.0015685377398068,-0.0015684091798897,0.0015648964063212,-0.0015645281061404,0.0015687703128926,-0.001340012098225,0.001328969044008,-0.0013286058229302,0.0013403500321009,3.6135349857743e-07,-2.0616469485482e-07,3.6355749275521e-07,-1.4639361921666e-07,-0.0014967947246137,0.0014969802361442,-0.0015663989005978,0.0015669273629796,-0.0015665408719073,0.0015667616390591,-0.001566544446952,0.0015667355560731,-0.0015667490424165,0.001566546395211,-0.0013341712400085,0.0013347337342171,-0.0013347214161058,0.0013342283541122,-0.001497247627076,0.0014978155286544,-0.0014978433441045,0.0014971674777037,6.1054840801005e-06,-5.4763485429336e-06,-0.0009967680360412,0.00099738329838623,6.5299976166493e-08,5.7133786716266e-07,-0.0010493635149873,0.0010536563494624,-0.0010491672143204,0.0010538194224974,-0.0010532212141083,0.001049792901081,-0.0010530527454764,0.001049947124005,-0.001113786151674,0.0011031894220282,-0.0011023686818111,0.0011145489773009,0.73319467497445,1473840,32975,0.0062171150338849,0.0062171488116327,0.0041479644370469,25.866713434436,0.00012213370747549,0.00012213370747549,0.00012213370747549,1525992.2437276,0.016720674350315
30326400,0.99998320362392,0.016737424179857,0.0059112225900599,0.0059112518181499,0.0049149497716474,-0.001496852149278,0.0014970487863806,-5.6827596816335e-06,5.8675470385485e-06,-1.6984935920669e-07,4.0236402378441e-07,-0.0015687442120154,0.0015649196135654,-0.0015649243459236,0.0015687308590125,-0.0015685990666288,0.0015650888988305,-0.001564717317306,0.0015689631292454,-0.0013399384709588,0.0013288976724123,-0.0013285312358193,0.0013402792428889,3.6246327863989e-07,-2.0293005056128e-07,3.6427381954659e-07,-1.4248059804905e-07,-0.0014968635986477,0.0014970536914389,-0.0015665879504534,0.0015671194396524,-0.0015667291296921,0.0015669551234166,-0.0015667325674495,0.0015669281418378,-0.0015669366119572,0.0015667401318657,-0.001334097091093,0.001334661836718,-0.0013346449441023,0.0013341599551753,-0.0014972379791787,0.0014978091692785,-0.0014978325054599,0.001497163552471,6.1042410588976e-06,-5.478303755886e-06,-0.00099684182473275,0.00099745381582467,6.5024725471036e-08,5.6784452506193e-07,-0.0010493367178486,0.0010536278649053,-0.0010491411622539,0.0010537896901726,-0.0010531946816684,0.0010497639968205,-0.0010530274643716,0.0010499170987088,-0.0011139141476386,0.0011033122090229,-0.0011024958326405,0.0011146728516834,0.72936702066768,1473840,32975,0.0062174104392719,0.0062174440468893,0.0041482627114107,25.975072520098,0.00012300058016078,0.00012300058016078,0.00012300058016078,1528605.5255532,0.016721577400494
30412800,0.99998371570935,0.016737432210789,0.0059112254433341,0.0059112546714242,0.0049149520960308,-0.0014969758100286,0.0014971762146724,-5.6816050430107e-06,5.870148698661e-06,-1.675334269986e-07,4.0362100727409e-07,-0.0015689948927445,0.0015651740220323,-0.0015651744263174,0.0015689856183643,-0.0015688501669314,0.0015653429058759,-0.0015649676726248,0.0015692176670414,-0.0013399129222828,0.0013288739584759,-0.0013285039957968,0.00134025693248,3.6070987839755e-07,-2.0368848012987e-07,3.6107430798709e-07,-1.4173940429292e-07,-0.0014969903349509,0.0014971780712995,-0.0015668421309952,0.0015673699540258,-0.0015669822235982,0.0015672070582253,-0.0015669864313209,0.0015671787212539,-0.0015671893701487,0.0015669922321152,-0.00133407514547,0.0013346336474305,-0.0013346194622894,0.0013341361289559,-0.0014972800566812,0.0014978487883017,-0.0014978741474071,0.0014972048874349,6.1042801389917e-06,-5.4797593688016e-06,-0.00099696926736426,0.0009975797000928,6.602745193549e-08,5.6500982371566e-07,-0.0010493563305653,0.0010536477870675,-0.0010491619918305,0.0010538083329363,-0.0010532147230911,0.001049783350432,-0.0010530488913535,0.0010499351550749,-0.0011140998455033,0.0011034935160786,-0.001102679823345,0.0011148558044784,0.72368414430052,1473840,32975,0.0062179308962191,0.0062179645600193,0.0041487871171138,26.114783013747,0.00012411826410998,0.00012411826410998,0.00012411826410998,1531468.27825,0.016723168191895
30499200,0.99998421712185,0.016737440150229,0.0059112282623565,0.0059112574904466,0.0049149543974259,-0.0014970490779642,0.0014972492016532,-5.6822756281254e-06,5.8708809914991e-06,-1.6581812741815e-07,4.0225316801397e-07,-0.0015692910655618,0.0015654703400692,-0.0015654709344007,0.0015692824068531,-0.0015691478114979,0.0015656381686479,-0.0015652650514418,0.0015695136807469,-0.0013397080592788,0.0013286664648674,-0.0013282972531713,0.0013400521075568,3.5571909807723e-07,-2.053188296681e-07,3.5231070049843e-07,-1.4037538571759e-07,-0.0014970671668023,0.0014972475633166,-0.0015671452133626,0.0015676594601817,-0.001567280449754,0.0015675005285155,-0.0015672884673382,0.0015674708668858,-0.0015674873498438,0.0015672868850222,-0.0013338778809789,0.0013344219655684,-0.001334412834493,0.001333932222199,-0.0014972207530457,0.001497784949392,-0.0014978108995097,0.0014971410377807,6.098747561362e-06,-5.4861604051487e-06,-0.00099713845950769,0.00099773751618314,6.5638791291894e-08,5.5427656663971e-07,-0.0010493037253721,0.0010535876042646,-0.0010491126477849,0.0010537445520298,-0.0010531624861692,0.0010497230464789,-0.001053000501263,0.0010498716927361,-0.0011143785769987,0.0011037566285204,-0.0011029592014089,0.0011151203106021,0.73065104587656,1473840,32975,0.0062182350197493,0.0062182688242695,0.0041494631040077,26.284256995393,0.00012547405596314,0.00012547405596314,0.00012547405596314,1536472.4464875,0.016724472824561
30585600,0.99998470797448,0.016737447940253,0.0059112310278483,0.0059112602559382,0.0049149566564666,-0.001497876244105,0.0014981015981307,-5.6723492159632e-06,5.8866323247902e-06,-1.6189521198323e-07,4.2354170229492e-07,-0.0015698413734438,0.0015660388437307,-0.0015660199575948,0.0015698517091375,-0.0015696937574422,0.0015662119424262,-0.0015658076297985,0.0015700900897511,-0.0013407452448231,0.0013297275766772,-0.0013293248789249,0.0013411203574927,3.6169261974867e-07,-2.1651217115373e-07,3.5612556233458e-07,-1.4873325858668e-07,-0.0014979092914866,0.0014980848481472,-0.0015677016441628,0.0015682196775354,-0.0015678398570216,0.0015680581550603,-0.001567850133999,0.0015680263211559,-0.0015680535063336,0.001567837814572,-0.0013349242225814,0.0013354714241918,-0.0013354736751158,0.0013349688892746,-0.0014983345669556,0.001498908103786,-0.0014989449106219,0.001498245624036,6.0867946922233e-06,-5.5038926224611e-06,-0.00099743414581406,0.00099800312656198,4.4247814741103e-08,5.4481583773713e-07,-0.0010498676281175,0.0010541195695199,-0.0010496719023103,0.0010542802790701,-0.0010537282801278,0.0010502531207695,-0.0010535628829509,0.0010504055929532,-0.0011147462132112,0.0011040923628843,-0.0011033213828359,0.0011154637678173,0.73237077225208,1473840,32975,0.0062217100747386,0.0062217435606866,0.0041506361849208,26.455518563584,0.00012684414850867,0.00012684414850867,0.00012684414850867,1528743.7976293,0.016732733523276
30672000,0.99998518833393,0.016737455582089,0.0059112337403934,0.005911262968482,0.004914958873214,-0.0014983677313303,0.0014985900222002,-5.6755500490835e-06,5.8864216818627e-06,-1.6550649626285e-07,4.2389274296506e-07,-0.0015702624532431,0.0015664553451854,-0.0015664400075677,0.0015702684992075,-0.0015701142438789,0.0015666294557698,-0.0015662263986944,0.0015705085283677,-0.0013412830939595,0.0013302594330386,-0.0013298592030042,0.0013416550745136,3.591390569668e-07,-2.2326450721094e-07,3.5380425303161e-07,-1.5475860647224e-07,-0.0014984034155166,0.0014985705383166,-0.0015681227550603,0.0015686358576647,-0.0015682629849261,0.0015684732082096,-0.001568272223356,0.0015684400752002,-0.0015684775254152,0.0015682510848997,-0.0013354609566166,0.0013360015985516,-0.0013360146485424,0.0013354968802911,-0.0014989067232334,0.0014994732448724,-0.0014995216926578,0.0014988078731763,6.082162457465e-06,-5.5116142678937e-06,-0.00099766682784197,0.00099822320838116,3.5928114456765e-08,5.4009715815135e-07,-0.0010501896739669,0.0010544289541455,-0.0010499923932077,0.0010545907687353,-0.0010540512032347,0.0010505615451306,-0.0010538848596356,0.0010507148140671,-0.0011150185743763,0.0011043496358657,-0.0011035891733745,0.0011157236498669,0.73400701981756,1473840,32975,0.006223737949956,0.0062237712354038,0.0041515788790658,26.626943170678,0.00012821554536543,0.00012821554536543,0.00012821554536543,1526552.2614138,0.01673781599909
30758400,0.99998565826662,0.016737463089583,0.0059112364045564,0.0059112656326434,0.0049149610523836,-0.0014988363134413,0.0014990766098763,-5.6683112819937e-06,5.8971807300082e-06,-1.5948616729403e-07,4.3589191037448e-07,-0.0015706724065217,0.0015668804002367,-0.0015668488036144,0.0015706943511709,-0.0015705227599343,0.0015670562861264,-0.0015666329818725,0.0015709366673216,-0.0013417787349652,0.0013307707784135,-0.0013303507027831,0.0013421703842402,3.6569482856567e-07,-2.2247677479051e-07,3.6007908113971e-07,-1.5340024900885e-07,-0.0014988772761336,0.0014990521053176,-0.001568534594343,0.0015690593286943,-0.0015686766957132,0.0015688950045376,-0.0015686854679097,0.0015688610684119,-0.0015688930082286,0.0015686705414037,-0.0013359585245225,0.0013365097389682,-0.0013365178347283,0.0013360006724587,-0.0014994538144288,0.0015000316103038,-0.0015000749091586,0.001499361129625,6.091087844039e-06,-5.5060113675472e-06,-0.00099788148645302,0.0009984523309458,4.0579941267149e-08,5.4958194919882e-07,-0.0010504803645062,0.0010547336447109,-0.0010502811518521,0.001054896900477,-0.0010543428331908,0.0010508652832154,-0.0010541751862895,0.0010510200294289,-0.0011152802562025,0.0011046238508668,-0.0011038470795959,0.00111600096836,0.73704530836025,1473840,32975,0.0062257146655457,0.0062257484849859,0.0041525028412267,26.798383427784,0.00012958706742227,0.00012958706742227,0.00012958706742227,1524598.4018059,0.016742776136159
30844800,0.99998611784276,0.016737470496999,0.0059112390317942,0.0059112682598799,0.0049149632053247,-0.0014993770541742,0.0014996334047279,-5.6625096380774e-06,5.9074540984295e-06,-1.530767111287e-07,4.4582314099123e-07,-0.001571111980921,0.0015673332652858,-0.0015672871064301,0.0015711489692431,-0.0015709612535942,0.0015675104409258,-0.0015670701553182,0.0015713922462387,-0.0013423760520895,0.001331380900869,-0.0013309438397601,0.0013427853859704,3.7337077008665e-07,-2.181387728279e-07,3.7000518628054e-07,-1.5123110677372e-07,-0.0014994201117335,0.0014996068645389,-0.0015689733396459,0.001569513363266,-0.0015691177473003,0.0015693463153738,-0.001569125420394,0.0015693143339769,-0.0015693352245643,0.0015691209172659,-0.0013365536776871,0.0013371233206346,-0.0013371202120929,0.0013366064234115,-0.0015001118036124,0.0015007026677609,-0.0015007357582094,0.0015000284081671,6.0993061263239e-06,-5.5022242037243e-06,-0.00099810926458445,0.00099869252221206,4.2998171032214e-08,5.5974268726119e-07,-0.0010508210934372,0.0010550856154348,-0.0010506190769387,0.0010552514445972,-0.0010546849137552,0.001051215853063,-0.0010545146421945,0.001051373222099,-0.0011155637294997,0.001104917765279,-0.0011041264150987,0.0011162993414667,0.74352740766804,1473840,32975,0.0062279858352034,0.0062280197766208,0.0041534781433504,26.969824061388,0.0001309585924911,0.0001309585924911,0.0001309585924911,1521568.1321712,0.016748387185268
30931200,0.99998656713666,0.016737477764256,0.0059112416088769,0.0059112708369613,0.0049149653184179,-0.001500084248942,0.0015003452047113,-5.6613186702425e-06,5.9107545913938e-06,-1.5290431948361e-07,4.5051240970113e-07,-0.0015716074913419,0.0015678301112714,-0.0015677817190442,0.0015716477790991,-0.0015714537072973,0.0015680094375935,-0.0015675637229261,0.0015718917618997,-0.0013432365191873,0.0013322468965251,-0.0013318044448869,0.0013436528809011,3.6961766859556e-07,-2.2644318337389e-07,3.6816954900635e-07,-1.6228787675578e-07,-0.001500135982999,0.0015003099163792,-0.0015694741843663,0.0015700057111578,-0.001569621232729,0.0015698349096488,-0.0015696287117554,0.0015698058581122,-0.0015698403366215,0.0015696089350436,-0.0013374218178614,0.0013379858286845,-0.0013379952430623,0.0013374590241148,-0.0015010283973203,0.0015016084806062,-0.0015016546220154,0.0015009285267369,6.1057021961028e-06,-5.4981473089376e-06,-0.00099837731255382,0.00099897134323333,4.4064269687573e-08,5.7036387648612e-07,-0.0010513100809038,0.0010555827656428,-0.0010511057089837,0.0010557521661457,-0.0010551749095133,0.0010517120590597,-0.001055000769129,0.0010518729434442,-0.001115884951286,0.0011052511092574,-0.0011044459416583,0.0011166347049554,0.74609165038024,1473840,32975,0.0062309217843556,0.0062309555767606,0.0041546197067254,27.141265317872,0.00013233012254297,0.00013233012254297,0.00013233012254297,1515954.2303298,0.016755519685334
31017600,0.99998700622664,0.016737484888963,0.0059112441350588,0.0059112733631424,0.0049149673907617,-0.0015005313870137,0.0015008012234585,-5.6578132583866e-06,5.9158333893777e-06,-1.4909608862472e-07,4.5560655241764e-07,-0.001572003436425,0.0015682346569358,-0.0015681769827989,0.0015720521834248,-0.0015718500786111,0.0015684141030033,-0.0015679585285317,0.0015722967281535,-0.0013437111556507,0.0013327281505629,-0.0013322770876475,0.0013441353921414,3.6922850583731e-07,-2.2813792470559e-07,3.697586435724e-07,-1.6557186813601e-07,-0.0015005882759989,0.0015007606496436,-0.0015698736083562,0.0015704063994964,-0.0015700231495219,0.0015702340365407,-0.0015700278917158,0.0015702051637551,-0.0015702420370941,0.0015700070648986,-0.0013378973121948,0.0013384637420141,-0.0013384764307199,0.0013379330306721,-0.0015015388678021,0.0015021161781895,-0.0015021666228097,0.0015014361625677,6.1077973436048e-06,-5.4976734080605e-06,-0.00099856880412,0.0009991651939875,4.2696138878736e-08,5.7366957208277e-07,-0.0010515931156493,0.0010558673252161,-0.0010513867246193,0.0010560379821275,-0.0010554584540646,0.0010519960108775,-0.0010552831356882,0.0010521583669725,-0.0011161013543428,0.0011054696013755,-0.0011046597755878,0.0011168537355997,0.74836008908234,1473840,32975,0.0062327906038027,0.0062328241260046,0.0041554223231262,27.312706642159,0.00013370165313727,0.00013370165313727,0.00013370165313727,1514077.2416328,0.016760136355193
31104000,0.99998743653489,0.016737491930134,0.0059112466304998,0.0059112758585822,0.0049149694410515,-0.0015010580238875,0.0015013437587718,-5.6503504047162e-06,5.9243847542866e-06,-1.4153295185197e-07,4.6381240415723e-07,-0.0015724925139318,0.001568739337943,-0.0015686657569371,0.0015725569030601,-0.0015723393550045,0.0015689188072168,-0.0015684470149408,0.0015728017586322,-0.0013442455071389,0.0013332769822623,-0.0013328097558909,0.0013446854630168,3.6883569992217e-07,-2.2924055070324e-07,3.7144635953945e-07,-1.6835179321037e-07,-0.0015011232401413,0.0015012944168761,-0.0015703698742066,0.0015709033270793,-0.0015705210438212,0.0015707297238995,-0.00157052420411,0.0015707016186906,-0.0015707401134235,0.0015705022124455,-0.0013384366346439,0.0013390059361298,-0.0013390204562975,0.0013384712963076,-0.0015021196372611,0.0015026945936463,-0.001502748728941,0.0015020141960677,6.1089204744085e-06,-5.4977213730342e-06,-0.00099883370806123,0.00099943103191599,4.0796257271167e-08,5.7625040931243e-07,-0.0010519453294608,0.0010562194644766,-0.0010517372674573,0.001056391551932,-0.0010558109691736,0.001052347701469,-0.001055634237425,0.001052511400385,-0.001116395399665,0.0011057646510398,-0.0011049521941393,0.0011171502088553,0.75461542655451,1473840,32975,0.0062350031502921,0.0062350357602515,0.0041565264683004,27.53815002071,0.00013550520016568,0.00013550520016568,0.00013550520016568,1512786.8631035,0.01676575785016
31190400,0.99998785849777,0.016737498895478,0.0059112490980315,0.0059112783261124,0.0049149714713344,-0.0015017911615853,0.0015020802866084,-5.6497049593864e-06,5.9275322345612e-06,-1.4133651268194e-07,4.6689597589916e-07,-0.001573085264365,0.0015693327126026,-0.0015692577470047,0.001573152075168,-0.0015729297007729,0.0015695135764295,-0.0015690381653935,0.0015733974419375,-0.0013450709363087,0.0013341065092357,-0.0013336341927153,0.0013455171163156,3.6884583848951e-07,-2.3202586864033e-07,3.7316658236224e-07,-1.7387639087001e-07,-0.0015018602499928,0.0015020276850546,-0.0015709642736653,0.0015714964775097,-0.0015711169015782,0.0015713201570363,-0.0015711204458221,0.0015712949672377,-0.0015713376128855,0.0015710925499097,-0.0013392649082564,0.0013398371733325,-0.0013398542616218,0.0013392935526117,-0.0015029877363054,0.0015035606711043,-0.001503618902573,0.0015028759236092,6.1119944769657e-06,-5.4972802388502e-06,-0.00099915874621117,0.00099975993752607,3.945243141339e-08,5.8238892281147e-07,-0.0010524625495195,0.001056738721912,-0.0010522529609918,0.0010569136188441,-0.0010563292326603,0.0010528659487447,-0.0010561493478166,0.0010530325325339,-0.0011167544512474,0.0011061282844026,-0.0011053106831088,0.0011175171532503,0.76119667445528,1473840,32975,0.0062380440487731,0.0062380779264772,0.0041578890700717,27.782445267257,0.00013745956213806,0.00013745956213806,0.00013745956213806,1508891.8175686,0.016773329746814
31276800,0.99998827209255,0.016737505717673,0.0059112515152457,0.0059112807433261,0.0049149734591014,-0.0015024813354668,0.0015027948371838,-5.6399514057978e-06,5.9422363100404e-06,-1.3488074912891e-07,4.8468480167673e-07,-0.00157365923794,0.0015699261215363,-0.0015698301793241,0.001573746550645,-0.0015735005667729,0.0015701104052116,-0.0015696064001582,0.0015739958862134,-0.0013458427065897,0.0013349004926591,-0.0013343993467562,0.001346315846816,3.7327878761799e-07,-2.3872744783563e-07,3.7460419360849e-07,-1.7787629725416e-07,-0.0015025638050781,0.0015027288372812,-0.0015715463499286,0.0015720813120652,-0.0015717005696379,0.0015719037989371,-0.0015717057666127,0.001571876057077,-0.0015719252996053,0.001571671897996,-0.0013400473631316,0.001340618488149,-0.0013406432554822,0.0013400696955966,-0.0015037991682836,0.0015043792122917,-0.0015044427246513,0.001503683977291,6.1104298181422e-06,-5.5035890583831e-06,-0.00099946605703825,0.0010000591769323,3.2574410317507e-08,5.8076526763655e-07,-0.0010529544456167,0.001057222613171,-0.0010527426463417,0.0010573988529767,-0.0010568226640539,0.0010533480169309,-0.0010566414448813,0.0010535164649375,-0.0011170846973325,0.0011064480021273,-0.0011056359494159,0.0011178411185315,0.76059934388376,1473840,32975,0.0062409504290211,0.0062409842711022,0.0041591530772149,28.027951766866,0.00013942361413493,0.00013942361413493,0.00013942361413493,1505246.6604078,0.016780526511717
31363200,0.99998867727512,0.01673751237742,0.005911253875501,0.0059112831035808,0.004914975398338,-0.0015028846485827,0.0015031460773445,-5.6676538452821e-06,5.9176806671294e-06,-1.6014109739561e-07,4.5800980544788e-07,-0.0015741380251746,0.0015703512903152,-0.0015703074829441,0.0015741740971087,-0.0015739783917918,0.001570535816098,-0.0015700850155506,0.0015744221523825,-0.0013461645679696,0.0013351692211429,-0.0013347220990396,0.0013465869109643,3.7342368660182e-07,-2.3749735136123e-07,3.737121277777e-07,-1.7593702790976e-07,-0.0015029404915025,0.001503106699348,-0.0015719987884647,0.0015725342991101,-0.001572152552487,0.001572356450574,-0.0015721585610889,0.0015723290684531,-0.0015723760786392,0.0015721260082207,-0.0013403450933672,0.0013409145476267,-0.001340935784164,0.0013403683231052,-0.0015041075142828,0.0015046876924417,-0.0015047467745492,0.001503994110999,6.1089694808191e-06,-5.5084130173696e-06,-0.00099966242100931,0.0010002496850972,3.1500751084207e-08,5.7696605171231e-07,-0.0010531854149318,0.0010574495276814,-0.001052975430085,0.0010576253660353,-0.0010570549447,0.001053573972868,-0.001056874071808,0.0010537415229451,-0.0011172759021793,0.0011066289273365,-0.0011058246371091,0.0011180248320771,0.75787865875535,1473840,32975,0.0062425119577026,0.0062425457897276,0.0041599559728173,28.273571590525,0.0001413885727242,0.0001413885727242,0.0001413885727242,1506759.1996925,0.016784517950717
31449600,0.99998907400598,0.016737518863051,0.0059112561747809,0.0059112854028605,0.0049149772854095,-0.0015032297038572,0.0015034884824549,-5.6703883211739e-06,5.917653992926e-06,-1.6062815052697e-07,4.5560054723409e-07,-0.0015745906885646,0.0015708013682277,-0.0015707588292355,0.0015746245857725,-0.0015744321970379,0.0015709850741687,-0.0015705369479536,0.0015748724044316,-0.0013463972327725,0.0013353952211685,-0.0013349511047428,0.0013468151327679,3.7861219976793e-07,-2.3044175831896e-07,3.7911157893167e-07,-1.6801480104153e-07,-0.0015032777734406,0.0015034569228121,-0.0015724439818519,0.0015729916266305,-0.0015725976967835,0.0015728147646456,-0.0015726025961191,0.0015727862187143,-0.0015728201598589,0.0015725844569895,-0.0013405672994708,0.0013411473661053,-0.0013411559227205,0.0013406046743398,-0.0015043609011905,0.0015049515644771,-0.0015049994750575,0.0015042614388352,6.117824682033e-06,-5.5026046590041e-06,-0.00099988736564879,0.0010004887737763,3.9553693076621e-08,5.8258259901038e-07,-0.0010533823081105,0.0010576624007362,-0.0010531727590708,0.0010578372805341,-0.0010572528843033,0.0010537857332249,-0.001057072656476,0.0010539521738245,-0.0011175188591384,0.0011068821810579,-0.0011060635167319,0.0011182809249289,0.75384300351399,1473840,32975,0.0062439351724085,0.0062439690989209,0.0041609180869643,28.519202148274,0.00014335361718619,0.00014335361718619,0.00014335361718619,1509245.4906811,0.016788389809944
31536000,0.99998946225264,0.016737525169246,0.00591125841126,0.0059112876393395,0.0049149791186469,-0.0015035512933537,0.0015038121874772,-5.6706879478676e-06,5.9201635915451e-06,-1.583107954711e-07,4.5519706650661e-07,-0.0015750422056803,0.0015712549801815,-0.0015712091082259,0.0015750789224376,-0.0015748847443038,0.0015714377294158,-0.0015709882130965,0.0015753260275555,-0.0013465769025356,0.0013355729981197,-0.0013351276529008,0.0013469955804355,3.8079628035778e-07,-2.2548724898741e-07,3.8230363129625e-07,-1.6325165694838e-07,-0.0015035967459485,0.0015037834349999,-0.0015728934213917,0.0015734476372791,-0.0015730472470033,0.001573271111309,-0.0015730508739236,0.0015732425852142,-0.0015732685029115,0.0015730416448042,-0.0013407416283167,0.001341328627572,-0.0013413290395356,0.001340788439324,-0.0015045872666565,0.0015051821992722,-0.0015052235299982,0.0015044957325309,6.1266814123457e-06,-5.496710517076e-06,-0.0010001381799355,0.0010007540107138,4.740553754028e-08,5.8884547675824e-07,-0.0010535607997949,0.0010578567500164,-0.0010533515264065,0.001058030955067,-0.0010574321438642,0.0010539790051774,-0.0010572522681491,0.0010541446514358,-0.0011178084154459,0.001107182475791,-0.0011063496076342,0.0011185844391714,0.74907249337782,1473840,32975,0.006245271494246,0.006245305815447,0.0041619876047969,28.764832752404,0.00014531866201923,0.00014531866201923,0.00014531866201923,1512392.8546016,0.016792194300153
31622400,0.99998984198987,0.016737531293687,0.0059112605841323,0.005911289812212,0.0049149808973424,-0.0015038575398991,0.0015041166231366,-5.673696339603e-06,5.9213045511029e-06,-1.5787060473495e-07,4.5267097565286e-07,-0.0015754917647672,0.0015717023239394,-0.0015716568543618,0.0015755276965354,-0.0015753353435736,0.0015718840787209,-0.0015714371086867,0.0015757738085965,-0.0013467272562892,0.0013357164558713,-0.0013352741162375,0.0013471426100168,3.8161181601258e-07,-2.2185513190712e-07,3.8337215543619e-07,-1.5951834392852e-07,-0.0015038997083567,0.0015040911858751,-0.0015733400437377,0.0015738980808174,-0.0015734938033347,0.0015737221249358,-0.0015734963088092,0.0015736930724359,-0.0015737136452046,0.0015734935207065,-0.0013408865136272,0.0013414758554451,-0.001341471281648,0.0013409393872328,-0.001504788186003,0.0015053848505851,-0.0015054218937404,0.0015047025964067,6.1315791627207e-06,-5.4961714983405e-06,-0.0010004092066456,0.0010010302102182,5.119661838798e-08,5.9008833447946e-07,-0.0010537354518641,0.0010580389023789,-0.0010535270315308,0.001058212268174,-0.0010576081353892,0.0010541595327242,-0.001057429221132,0.0010543242397004,-0.0011181280744109,0.0011075019773249,-0.0011066645088816,0.0011189082914404,0.74386089747401,1473840,32975,0.006246536389499,0.0062465707754793,0.0041631214279268,29.010462438766,0.00014728369951013,0.00014728369951013,0.00014728369951013,1515991.5815872,0.016795918489689
31708800,0.99999021310078,0.016737537234017,0.0059112626925519,0.0059112919206317,0.0049149826208332,-0.0015041407971788,0.0015043963670537,-5.6763704245011e-06,5.920460227664e-06,-1.5882633162533e-07,4.5000875701392e-07,-0.0015759345055555,0.0015721415791103,-0.0015720989183575,0.001575967488222,-0.001575778446596,0.0015723227007804,-0.0015718797322397,0.0015762127747634,-0.0013468308900457,0.0013358140637822,-0.0013353762370536,0.0013472421095447,3.7466590485636e-07,-2.2724232030195e-07,3.7587835829375e-07,-1.6416294743151e-07,-0.0015041871853137,0.0015043664217651,-0.0015737875524914,0.001574332246486,-0.0015739406209452,0.0015741570907065,-0.0015739433842742,0.0015741276120387,-0.0015741599253939,0.0015739289419596,-0.0013409944004494,0.0013415690549468,-0.0013415762046884,0.0013410355934398,-0.0015049660452991,0.0015055493912922,-0.0015055982702491,0.0015048688437089,6.1323594948397e-06,-5.4973027887183e-06,-0.0010006843290809,0.0010013049952851,5.2504166592163e-08,5.8843997148406e-07,-0.0010538874809779,0.001058192172471,-0.001053680017085,0.0010583644900484,-0.0010577606429469,0.0010543121600478,-0.0010575825419047,0.001054475881999,-0.0011184639068345,0.0011078343336272,-0.0011069980762191,0.0011192423258254,0.73835139556231,1473840,32975,0.0062477027721733,0.0062477365613756,0.0041642605509535,29.251401787725,0.0001492112143018,0.0001492112143018,0.0001492112143018,1519964.2492661,0.016799446998511
31795200,0.99999057102615,0.016737542908285,0.0059112647076224,0.0059112939357022,0.00491498426496,-0.001503971618705,0.0015042122528463,-5.6831512339832e-06,5.9123311462326e-06,-1.6351990205877e-07,4.4014535001135e-07,-0.0015759376264812,0.0015721306843648,-0.0015721024543865,0.0015759574426851,-0.0015757815106943,0.0015723108240226,-0.0015718851760728,0.0015761999349038,-0.0013464724127585,0.0013354427533333,-0.0013350214963623,0.0013468680964561,3.7134006010905e-07,-2.2546408511914e-07,3.6968784162432e-07,-1.6142218013351e-07,-0.001504011753003,0.0015041883229636,-0.0015737879802846,0.0015743248220488,-0.0015739372061135,0.001574152012524,-0.0015739430887088,0.0015741229341834,-0.0015741549375643,0.0015739266954778,-0.0013406365590451,0.0013412009565143,-0.0013412074564241,0.0013406747183334,-0.0015046663458452,0.0015052466682094,-0.0015052911517078,0.0015045697575186,6.1342103217687e-06,-5.4938938098255e-06,-0.0010005981027231,0.001001224558386,6.0051084295801e-08,5.8771044886165e-07,-0.0010536523936323,0.0010579645902366,-0.0010534487835946,0.0010581351764833,-0.0010575253871432,0.001054085220362,-0.0010573492652215,0.0010542470675893,-0.0011184259225577,0.0011078021203385,-0.001106963189202,0.0011192079644264,0.73133574761158,1473840,32975,0.0062469724314252,0.0062470057266587,0.0041639121115051,29.26966579649,0.00014935732637192,0.00014935732637192,0.00014935732637192,1523600.2710882,0.016797605850049
31881600,0.99999091596383,0.016737548501011,0.0059112666908711,0.0059112959189511,0.0049149858911885,-0.0015036945597213,0.0015039067244361,-5.6947095413997e-06,5.8953709600009e-06,-1.7168559356635e-07,4.2029345956374e-07,-0.0015759130104778,0.0015720841085183,-0.0015720805882278,0.0015759084063051,-0.0015757619563362,0.0015722598940523,-0.0015718668427543,0.0015761476838145,-0.0013458878009388,0.0013348300052672,-0.001334440728946,0.0013462518504587,3.6355701074067e-07,-2.2138765715842e-07,3.6062484898879e-07,-1.5679412624251e-07,-0.0015037227208465,0.0015038950200573,-0.0015737590996683,0.0015742814357583,-0.0015739025124454,0.0015741142639962,-0.0015739101782564,0.0015740848493985,-0.0015741172808407,0.0015738925921665,-0.0013400455203296,0.0013405978464719,-0.0013406045978877,0.0013400836080804,-0.0015042244546599,0.0015047957632258,-0.0015048380537302,0.0015041282122922,6.1275491532062e-06,-5.4945550566289e-06,-0.0010004964516608,0.0010011158493453,6.3466564311261e-08,5.7692355252163e-07,-0.0010532787279894,0.0010575869931738,-0.0010530793777217,0.0010577522327104,-0.0010571499014832,0.0010537100325182,-0.0010569796635444,0.0010538669671142,-0.0011184314568288,0.0011078017643579,-0.0011069757351359,0.001119201846885,0.7478961620346,1473840,32975,0.0062457680955541,0.0062458019102942,0.0041634719211029,29.274871961913,0.0001493989756953,0.0001493989756953,0.0001493989756953,1528755.3975194,0.016794708112613
31968000,0.99999124835869,0.01673755390669,0.0059112686074603,0.0059112978355402,0.0049149874636897,-0.0015046991869235,0.0015049427216465,-5.686778061076e-06,5.918416376193e-06,-1.6367906760381e-07,4.4445894302664e-07,-0.0015763338578844,0.0015725283206733,-0.0015724987037754,0.0015763553572695,-0.001576181484614,0.0015727083990536,-0.0015722778602164,0.0015766026659943,-0.001347370269114,0.0013363287769299,-0.0013359010250793,0.0013477699830356,3.5681852610737e-07,-2.4409152230866e-07,3.5610396703913e-07,-1.806628178609e-07,-0.0015047573054586,0.0015049011502014,-0.001574199774074,0.0015747030406403,-0.0015743470352433,0.0015745322430039,-0.0015743548344733,0.0015745033670439,-0.0015745691601598,0.0015743032978158,-0.001341542078585,0.0013420828524817,-0.0013421253194465,0.0013415474087237,-0.0015058224167125,0.0015063782258687,-0.0015064556887162,0.001505690143485,6.1244247570063e-06,-5.5118271994749e-06,-0.0010006838586328,0.0010012830323235,4.3517230097609e-08,5.7538252199585e-07,-0.0010539575144222,0.001058244529748,-0.0010537500338406,0.0010584151833931,-0.0010578331206251,0.0010543634733438,-0.0010576588283697,0.0010545260563465,-0.0011187313727443,0.0011080723322446,-0.0011072607353422,0.0011194877101721,0.75022057401057,1473840,32975,0.0062499888521595,0.0062500228480417,0.0041642238479329,29.27888460801,0.00014943107686408,0.00014943107686408,0.00014943107686408,1512485.8053208,0.016804060644307
32054400,0.99999156866189,0.01673755913551,0.005911270461034,0.0059112996891126,0.0049149889853638,-0.0015048016783866,0.0015050374382059,-5.6904784712309e-06,5.914305871735e-06,-1.6820039655743e-07,4.4097346391273e-07,-0.0015763691555098,0.00157255406433,-0.0015725327295671,0.0015763826012216,-0.0015762138829634,0.0015727351349431,-0.0015723127564647,0.0015766285630168,-0.0013475431549616,0.0013364981048036,-0.0013360792695077,0.00134793625014,3.6670570347355e-07,-2.3533482656738e-07,3.6604782051755e-07,-1.7258624655062e-07,-0.0015048468085753,0.0015050087530512,-0.001574220903105,0.0015747447316026,-0.0015743702931881,0.0015745715595414,-0.001574377037022,0.0015745432080661,-0.0015745913834879,0.0015743432478146,-0.0013417044934021,0.0013422633545773,-0.0013422864468778,0.0013417266926391,-0.0015059457575747,0.0015065183689576,-0.0015065775690816,0.0015058310963077,6.1229137965293e-06,-5.513674845387e-06,-0.0010005987718265,0.0010011947580706,4.1169828967809e-08,5.755272754502e-07,-0.0010539958213907,0.0010582788138472,-0.0010537888932204,0.0010584507086284,-0.0010578719824519,0.0010543972098909,-0.0010576951589128,0.0010545610192256,-0.0011186245834246,0.0011079640125746,-0.0011071543076555,0.0011193784206188,0.75282616941312,1473840,32975,0.0062503961417285,0.0062504299288694,0.0041638663048438,29.282779889174,0.00014946223911339,0.00014946223911339,0.00014946223911339,1510317.1836903,0.016804525671796
32140800,0.99999187731048,0.016737564196376,0.0059112722546466,0.0059113014827246,0.0049149904590047,-0.0015049372563742,0.0015051071359394,-5.7233662982963e-06,5.8816227353714e-06,-1.6594970986289e-07,3.7217096341652e-07,-0.0015764345569126,0.0015725763711151,-0.0015725971748004,0.0015764056201842,-0.0015763011897601,0.0015727340504929,-0.0015724011119588,0.0015766269383728,-0.0013477448777535,0.0013366119975664,-0.0013362831626728,0.0013480487721555,3.4683730542426e-07,-1.8442304615683e-07,3.3653835634202e-07,-1.1283898359654e-07,-0.0015049343068112,0.0015051265199513,-0.0015742760611406,0.0015747777077257,-0.0015743970048172,0.0015746333663867,-0.0015744093334604,0.0015745991477664,-0.0015745940488538,0.0015744296020237,-0.0013418795040301,0.0013424031947254,-0.0013423724102737,0.001341955686637,-0.0015060927869358,0.0015066545629533,-0.0015066540127165,0.0015060393497146,6.1147365374276e-06,-5.5223337091e-06,-0.0010005122454791,0.0010010911545525,7.6999359402601e-08,5.2249079084052e-07,-0.0010540021480576,0.0010582978324522,-0.0010538255054677,0.0010584404499224,-0.0010578784650443,0.0010544159151276,-0.001057730848303,0.0010545501971995,-0.0011185424833137,0.001107834809635,-0.0011070718839031,0.0011192495484952,0.75611982466289,1473840,32975,0.0062508201460607,0.0062508539132431,0.0041634741710339,29.286663409506,0.00014949330727605,0.00014949330727605,0.00014949330727605,1508122.6928758,0.016804989730423
32227200,0.99999217472602,0.016737569096891,0.0059112739910013,0.0059113032190792,0.0049149918868109,-0.0015050555689113,0.0015052270739743,-5.7230373082414e-06,5.8829296794654e-06,-1.6595669899962e-07,3.7379658249506e-07,-0.0015764931083395,0.0015726356827086,-0.0015726554057483,0.0015764652597172,-0.0015763592022786,0.0015727939089425,-0.0015724588069424,0.0015766871171047,-0.001347905252741,0.0013367736091667,-0.0013364425809849,0.0013482113345925,3.4741373373293e-07,-1.8547751833116e-07,3.3667135112582e-07,-1.1345139734011e-07,-0.0015050536687529,0.0015052454091171,-0.0015743348378954,0.0015748368128554,-0.0015744560314534,0.001574692214346,-0.0015744686571787,0.0015746577020844,-0.0015746536099312,0.0015744879089393,-0.0013420406238666,0.0013425640033158,-0.0013425342453287,0.0013421157923142,-0.0015062652469609,0.0015068278778648,-0.0015068280773364,0.0015062111071255,6.1147303636126e-06,-5.5233294960304e-06,-0.0010004167418376,0.001000994654223,7.6153097911073e-08,5.2233885720884e-07,-0.0010540098777532,0.0010583046687031,-0.0010538330024285,0.0010584475227818,-0.0010578865198795,0.0010544224189701,-0.0010577386767322,0.0010545569321237,-0.0011184528790653,0.0011077434705622,-0.0011069813238757,0.0011191592054485,0.75977565203354,1473840,32975,0.0062513123608221,0.0062513461290732,0.0041630786437078,29.290545738564,0.00014952436590851,0.00014952436590851,0.00014952436590851,1505591.9580269,0.016805589176538
32313600,0.99999246131489,0.016737573843905,0.0059112756725338,0.0059113049006115,0.0049149932707601,-0.0015051756692454,0.0015053461679448,-5.7245016724982e-06,5.8833705322957e-06,-1.6837124821591e-07,3.7524164244602e-07,-0.0015765519889091,0.0015726916422484,-0.0015727136491046,0.0015765218503212,-0.001576416816278,0.0015728511552682,-0.0015725157826635,0.0015767449976264,-0.0013480714342587,0.001336938181434,-0.0013366068758292,0.0013483777633552,3.4870318888016e-07,-1.8805856112905e-07,3.3726149276593e-07,-1.1531239413798e-07,-0.0015051739008611,0.0015053643696548,-0.0015743918600469,0.001574894654771,-0.0015745138611072,0.0015747492410223,-0.0015745269345893,0.0015747142556177,-0.001574712698741,0.0015745436436545,-0.0013422060682279,0.0013427293035861,-0.0013427020864943,0.0013422786683566,-0.0015064369514254,0.0015070012936519,-0.001507003563582,0.0015063806748361,6.1164104714146e-06,-5.5235692461994e-06,-0.0010003121081043,0.0010008914521275,7.5646117105018e-08,5.242895416918e-07,-0.0010540180039695,0.0010583140458858,-0.0010538403142219,0.0010584577202446,-0.0010578953041661,0.001054431160005,-0.001057746640336,0.0010545664927017,-0.0011183496367941,0.0011076406116702,-0.0011068761768095,0.00111905820415,0.76373522644891,1473840,32975,0.0062518064472285,0.0062518402119257,0.004162650384818,29.294427939855,0.00014955542351883,0.00014955542351883,0.00014955542351883,1502965.8035837,0.016806159170984
32400000,0.9999927374689,0.016737578443517,0.005911277301419,0.0059113065294966,0.0049149946126012,-0.0015052927956381,0.0015054682072631,-5.7222207990778e-06,5.8860132760038e-06,-1.6764403647614e-07,3.7943038579199e-07,-0.0015766062295534,0.0015727495294453,-0.0015727677844609,0.0015765798531555,-0.0015764699227857,0.0015729101980928,-0.0015725687748646,0.0015768041567121,-0.0013482370282283,0.0013371094838046,-0.0013367721047771,0.0013485494274282,3.4992530427423e-07,-1.9028039686584e-07,3.3899944023003e-07,-1.1803432167385e-07,-0.00150529397603,0.0015054834623692,-0.0015744471154684,0.0015749515609341,-0.0015745705792282,0.0015748046587818,-0.0015745833379947,0.0015747700087883,-0.0015747705659054,0.001574597903789,-0.0013423734056628,0.0013428988915982,-0.0013428737797411,0.0013424438437111,-0.0015066080516048,0.0015071733105618,-0.001507178042698,0.0015065492831427,6.1171451099612e-06,-5.5232137700355e-06,-0.0010002007677301,0.0010007812052843,7.3981697267696e-08,5.2707483804629e-07,-0.0010540279559252,0.0010583237344524,-0.0010538487855643,0.0010584688871674,-0.0010579053748148,0.0010544407087554,-0.0010577552334885,0.0010545775222678,-0.0011182348883003,0.0011075280581629,-0.0011067610568869,0.0011189460419027,0.76793670730928,1473840,32975,0.0062523004076365,0.0062523341767858,0.0041621936945995,29.298310121379,0.00014958648097103,0.00014958648097103,0.00014958648097103,1500267.6713678,0.016806700028673
32486400,0.99999300354809,0.01673758284811,0.0059112788618378,0.0059113080899153,0.004914995896357,-0.0015054084099918,0.0015055854346121,-5.7213529953652e-06,5.8866042286493e-06,-1.6823907526979e-07,3.8175407470778e-07,-0.0015766633407921,0.0015728076161606,-0.0015728251259301,0.0015766376180582,-0.001576526440024,0.0015729691474477,-0.0015726250340663,0.0015768630787771,-0.0013483914540032,0.0013372664240992,-0.0013369261779779,0.0013487061973669,3.5024199644777e-07,-1.9285397598133e-07,3.4036394702641e-07,-1.2172952398416e-07,-0.0015054114738586,0.0015055987558248,-0.0015745043871692,0.0015750089442269,-0.001574629228158,0.0015748607247834,-0.0015746413569439,0.0015748267338426,-0.0015748303610629,0.0015746527677293,-0.0013425280959573,0.0013430558036977,-0.0013430340788433,0.0013425953528989,-0.0015067782203725,0.0015073428928246,-0.0015073514334994,0.0015067154292748,6.1142197695213e-06,-5.5257413750574e-06,-0.0010000856688827,0.0010006606985593,6.8776127860033e-08,5.2679023950508e-07,-0.0010540300937153,0.0010583187723369,-0.0010538491350694,0.0010584653992589,-0.0010579075437385,0.0010544359528983,-0.0010577558349435,0.0010545744941905,-0.0011181218756458,0.0011074121331341,-0.0011066487808979,0.0011188293113684,0.76322620068393,1473840,32975,0.0062527812665991,0.0062528149303358,0.0041617080511538,29.301025329256,0.00014960820263405,0.00014960820263405,0.00014960820263405,1497528.4378829,0.016807184699753
32572800,0.99999325953241,0.01673758704687,0.0059112803500653,0.0059113095781425,0.0049149971186624,-0.0015051237847399,0.001505308965236,-5.7168028856408e-06,5.8899406286137e-06,-1.6057956640321e-07,3.8193614230176e-07,-0.001576520323427,0.0015726746476623,-0.0015726816135258,0.0015765054554625,-0.0015763839845877,0.001572834206973,-0.0015724845592918,0.0015767273321448,-0.0013479860119,0.0013368699491963,-0.0013365247466205,0.0013483058187921,3.4935262215151e-07,-1.863842513473e-07,3.4136370309116e-07,-1.1800548586439e-07,-0.0015051283877777,0.0015053208127758,-0.0015743655338546,0.0015748731464964,-0.0015744904360694,0.0015747247079017,-0.001574500724565,0.0015746926514738,-0.0015746882675678,0.0015745198889194,-0.0013421257995072,0.0013426569138025,-0.0013426263603915,0.0013421986203998,-0.0015063562815337,0.0015069190829299,-0.0015069204262735,0.0015062996550656,6.1205957337574e-06,-5.5187140498164e-06,-0.00099984275996692,0.0010004310759657,7.6900589145612e-08,5.3277773566856e-07,-0.0010537284717176,0.0010580304213801,-0.0010535492125215,0.0010581769797681,-0.0010576058420322,0.0010541474300711,-0.0010574536691819,0.0010542856259189,-0.0011178538884311,0.0011071586322075,-0.0011063814315681,0.0011185738969466,0.7562610253674,1473840,32975,0.0062516200518873,0.0062516538529704,0.0041607246520602,29.277236943194,0.00014941789554555,0.00014941789554555,0.00014941789554555,1500496.2651362,0.016803822213333
32659200,0.99999350579559,0.016737591043146,0.0059112817673025,0.0059113109953799,0.0049149982804639,-0.0015047967756863,0.0015049759237352,-5.7179731832581e-06,5.8848354828582e-06,-1.6142180301313e-07,3.7666048398341e-07,-0.001576385380246,0.0015725359768273,-0.0015725476362047,0.0015763660072355,-0.0015762496850009,0.0015726947466616,-0.0015723524362979,0.0015765860773656,-0.0013474786395219,0.0013363598408485,-0.0013360231295561,0.0013477910418636,3.4658233047402e-07,-1.8468180871396e-07,3.3679042599167e-07,-1.1425744248906e-07,-0.0015047985714776,0.0015049901375232,-0.0015742311476529,0.0015747346677152,-0.0015743540859134,0.0015745882633368,-0.0015743652283954,0.0015745549460764,-0.0015745498035405,0.0015743853073299,-0.0013416210517214,0.0013421430918758,-0.0013421120939198,0.0013416943718717,-0.0015058645319356,0.0015064233441254,-0.001506422812189,0.0015058097968096,6.123535604349e-06,-5.5121848509776e-06,-0.00099963758564216,0.0010002354406541,8.5807719334604e-08,5.3364272672812e-07,-0.0010533717717773,0.0010576844517529,-0.0010531953676368,0.0010578286834574,-0.0010572476523853,0.0010538026027985,-0.0010570977606105,0.0010539382600975,-0.0011176578050282,0.0011069725580857,-0.001106188179144,0.0011183837730657,0.74829752925337,1473840,32975,0.0062502547066926,0.0062502875964206,0.0041598890028711,29.251891837824,0.00014921513470259,0.00014921513470259,0.00014921513470259,1504725.5253735,0.01680019342167
32745600,0.99999374271773,0.016737594843371,0.0059112831158127,0.0059113123438904,0.0049149993836676,-0.0015044346632498,0.0015046039715464,-5.7210149290204e-06,5.8787432632446e-06,-1.6194620041298e-07,3.6748618125256e-07,-0.0015762833830955,0.0015724292295715,-0.0015724476192524,0.0015762566687885,-0.0015761528129687,0.0015725840138097,-0.0015722544410207,0.0015764750728834,-0.0013468179769405,0.0013356869182338,-0.0013353612819772,0.0013471182443611,3.4385986372339e-07,-1.7868749651758e-07,3.3551591568464e-07,-1.0915402633073e-07,-0.0015044300814741,0.0015046249859584,-0.0015741276254824,0.0015746276272402,-0.001574247176157,0.0015744848009269,-0.0015742580886934,0.0015744519492547,-0.0015744413657944,0.0015742839779529,-0.0013409529330344,0.0013414774143263,-0.001341441140916,0.0013410347237612,-0.0015053342569755,0.0015058916102243,-0.001505886918684,0.001505285282184,6.1236785838841e-06,-5.5082091401926e-06,-0.00099945796486131,0.0010000597293662,9.067302127294e-08,5.3160777800029e-07,-0.0010529205177486,0.001057238692613,-0.001052745369993,0.0010573798447974,-0.0010567950895018,0.0010533584893458,-0.0010566489684499,0.0010534913141506,-0.0011175678102647,0.0011068868295199,-0.0011061024304266,0.0011182964653681,0.73975111874612,1473840,32975,0.0062487368179297,0.0062487705817994,0.0041591474630623,29.226404545673,0.00014901123636538,0.00014901123636538,0.00014901123636538,1509880.5464543,0.016796351740192
32832000,0.99999397066544,0.016737598457565,0.0059112843990578,0.0059113136271354,0.0049150004313716,-0.0015040324600712,0.001504200643902,-5.7186091792024e-06,5.8752377464742e-06,-1.5895871840238e-07,3.6330971415524e-07,-0.0015761389616216,0.0015722880184298,-0.0015723051556699,0.0015761135008407,-0.0015760107310425,0.0015724404171475,-0.0015721143316411,0.0015763295080713,-0.0013461464491778,0.0013350177347464,-0.0013346955838525,0.0013464432494589,3.4149020478676e-07,-1.738777037755e-07,3.3244301569666e-07,-1.0368411964465e-07,-0.0015040261161918,0.0015042234184175,-0.0015739861757073,0.0015744833675288,-0.001574102921157,0.0015743433909005,-0.0015741143035568,0.0015743100812009,-0.0015742947745477,0.0015741449697052,-0.0013402843469815,0.0013408052462159,-0.0013407642477026,0.0013403709763616,-0.0015047355469163,0.0015052911080753,-0.0015052812035618,0.001504691918401,6.1185751668546e-06,-5.5073801268392e-06,-0.0009992972492314,0.00099989474627065,9.2788020832244e-08,5.2517673567898e-07,-0.0010525057846991,0.0010568205734464,-0.0010523334874196,0.0010569588744808,-0.0010563783587313,0.0010529423433385,-0.0010562350827672,0.0010530723332094,-0.0011174638426794,0.0011067815847439,-0.0011060043582454,0.0011181854171307,0.73135296889828,1473840,32975,0.0062470710480342,0.0062471048081324,0.0041584666432404,29.200903419397,0.00014880722735518,0.00014880722735518,0.00014880722735518,1515719.5202025,0.016792270096753
32918400,0.99999418999059,0.01673760198361,0.0059112856498886,0.0059113148779661,0.0049150014557551,-0.001503615909604,0.0015037871495338,-5.7139911571419e-06,5.8733241328908e-06,-1.5291664503411e-07,3.6010071959251e-07,-0.0015759711557673,0.0015721279258741,-0.0015721390916004,0.001575952128056,-0.0015758447002023,0.0015722778353435,-0.0015719517995893,0.0015761643820296,-0.0013454934961971,0.0013343721569539,-0.0013340518570416,0.0013457904089733,3.4063291922637e-07,-1.6550890767327e-07,3.308290495841e-07,-9.428489124113e-08,-0.0015036073889398,0.001503812274525,-0.0015738221936407,0.0015743214585888,-0.0015739362587369,0.0015741838755137,-0.0015739478336849,0.0015741502632662,-0.0015741241630855,0.0015739891607813,-0.0013396365890771,0.0013401558841886,-0.0013401028398439,0.0013397330065582,-0.0015041067538975,0.0015046626330552,-0.0015046414813773,0.0015040743651828,6.1114098982917e-06,-5.5085217041094e-06,-0.00099915267132075,0.00099974212138498,9.4589837089641e-08,5.1616072129904e-07,-0.0010521256762219,0.0010564336485642,-0.0010519575988526,0.0010565687932801,-0.001055996030562,0.0010525573683116,-0.0010558556716729,0.0010526836789343,-0.0011173498290217,0.001106661290932,-0.001105895287075,0.0011180584093876,0.74157912057058,1473840,32975,0.0062453544896423,0.0062453886113833,0.0041578446639444,29.175400853866,0.00014860320683093,0.00014860320683093,0.00014860320683093,1521782.8342764,0.016788145428007
33004800,0.99999440103087,0.016737605382342,0.0059112868553571,0.005911316083435,0.0049150024435502,-0.001504227024465,0.0015044047035551,-5.713394020783e-06,5.8797187901085e-06,-1.5653646112592e-07,3.7054806483653e-07,-0.0015762184783781,0.0015723767739036,-0.0015723858861438,0.0015762008181257,-0.0015760903974857,0.001572530188742,-0.001572192893055,0.0015764194263986,-0.0013463736578903,0.0013352554172205,-0.0013349208109613,0.0013466820726828,3.4332402629468e-07,-1.7666960507054e-07,3.349737217028e-07,-1.0749890133368e-07,-0.0015042257775519,0.001504422113468,-0.0015740685793926,0.0015745670752507,-0.001574186052508,0.0015744264164276,-0.0015741977714664,0.0015743935464662,-0.0015743806263298,0.0015742255736507,-0.0013405143334898,0.0013410403850067,-0.001341003403194,0.0013405982816796,-0.0015050969820865,0.0015056559578428,-0.00150564932136,0.0015050505222469,6.1048910582588e-06,-5.519842306844e-06,-0.00099916895312143,0.00099974056394681,7.6560644683329e-08,5.1466162900675e-07,-0.0010524545150356,0.0010567416938905,-0.0010522794476273,0.0010568811764818,-0.0010563265719592,0.0010528639726863,-0.0010561823477409,0.0010529958165423,-0.0011174629645784,0.0011067578193743,-0.001106005739656,0.0011181610227146,0.74293816290068,1473840,32975,0.0062478955901716,0.0062479287937652,0.0041578861278559,29.149898227092,0.00014839918581673,0.00014839918581673,0.00014839918581673,1510799.4158312,0.01679335697567
33091200,0.99999460411028,0.016737608698252,0.0059112880304886,0.0059113172585658,0.004915003409198,-0.0015043012165775,0.0015044715253577,-5.7165920011674e-06,5.8753246375836e-06,-1.6206064078305e-07,3.6864373873611e-07,-0.0015762158549688,0.0015723648834813,-0.001572382826838,0.0015761897993117,-0.0015760849119948,0.0015725200864888,-0.0015721891858092,0.0015764086427017,-0.0013465198499891,0.0013353978426721,-0.0013350709335994,0.0013468218014898,3.4415947157302e-07,-1.79655047529e-07,3.3492739432959e-07,-1.0922232649665e-07,-0.0015042974635958,0.0015044917058449,-0.0015740619889416,0.0015745614662054,-0.0015741812025088,0.0015744188749503,-0.0015741928407654,0.0015743854070253,-0.0015743758525503,0.0015742175782838,-0.001340660194596,0.0013411833123201,-0.001341148081429,0.0013407408759612,-0.0015052201024983,0.0015057784505717,-0.0015057741244065,0.0015051705713501,6.1070355274368e-06,-5.5169732247855e-06,-0.00099907371661466,0.00099965029352877,7.8462966012865e-08,5.1867531504869e-07,-0.0010524607099973,0.001056751479565,-0.0010522858457126,0.0010568923382442,-0.0010563326603237,0.0010528738932831,-0.0010561868015249,0.0010530064547369,-0.0011173706069144,0.0011066717194404,-0.0011059129891237,0.0011180737383887,0.75302747923313,1473840,32975,0.0062481868288919,0.0062482205824254,0.0041575034282906,29.124396140531,0.00014819516912424,0.00014819516912424,0.00014819516912424,1508479.7598012,0.016793561158583
33177600,0.99999479953975,0.016737611901765,0.0059112891655623,0.0059113183936394,0.0049150043425632,-0.0015047803619491,0.0015049523392588,-5.7166524910323e-06,5.8770138844955e-06,-1.6668532027894e-07,3.7500824912365e-07,-0.0015763740731155,0.0015725205670915,-0.0015725404768688,0.0015763460600683,-0.001576239521898,0.0015726794475586,-0.0015723432365332,0.0015765685573744,-0.0013472766913408,0.0013361582150158,-0.0013358260841591,0.0013475839025149,3.4798053527823e-07,-1.8684864970554e-07,3.3771740567572e-07,-1.1530381566687e-07,-0.0015047790959654,0.0015049700382438,-0.0015742173727231,0.0015747201541293,-0.001574339512416,0.001574574587616,-0.0015743518286427,0.0015745403957178,-0.0015745377268374,0.0015743696352069,-0.0013414179558643,0.0013419427266316,-0.0013419144051778,0.0013414916611055,-0.0015059833602341,0.001506546124904,-0.0015065480741291,0.0015059274482428,6.1083732084463e-06,-5.5174098443248e-06,-0.00099907838704785,0.00099965587157176,7.4507787433179e-08,5.2358208082515e-07,-0.0010527730552913,0.001057062362128,-0.0010525952339134,0.001057206189957,-0.0010566456073026,0.0010531842056294,-0.0010564968071584,0.0010533196976785,-0.0011174035140472,0.0011067066799585,-0.00110594400471,0.0011181103697988,0.75593956176492,1473840,32975,0.0062501718027369,0.0062502055676045,0.0041575336446824,29.09889376777,0.00014799115014216,0.00014799115014216,0.00014799115014216,1499514.8668584,0.016797631093688
33264000,0.99999498771851,0.016737614999694,0.0059112902629953,0.0059113194910723,0.0049150052456266,-0.0015048422498445,0.00150501398733,-5.7167212031623e-06,5.8768358081227e-06,-1.6770144338243e-07,3.7579896525704e-07,-0.0015763853343149,0.0015725310282261,-0.0015725517663644,0.0015763564743811,-0.0015762501884682,0.0015726905074242,-0.0015723539355885,0.001576579574524,-0.0013473727556783,0.0013362547452579,-0.0013359222392618,0.0013476803046067,3.4862316657972e-07,-1.8801775617899e-07,3.3759918824445e-07,-1.1570699149819e-07,-0.0015048411232736,0.0015050315469389,-0.0015742281421963,0.0015747311074678,-0.0015743503888333,0.0015745854419728,-0.0015743631900989,0.0015745507425842,-0.0015745491881841,0.0015743798869901,-0.001341514674528,0.0013420385978848,-0.0013420113875434,0.0013415872472793,-0.0015060901340857,0.0015066540515034,-0.0015066566086497,0.0015060335896051,6.1092791987875e-06,-5.5164010755349e-06,-0.00099894791168615,0.00099952729381738,7.5310433916586e-08,5.246802695068e-07,-0.0010527333485015,0.001057024408934,-0.0010525554302333,0.0010571683391869,-0.0010566058713423,0.0010531462918417,-0.0010564569749601,0.0010532818786771,-0.0011172764736133,0.0011065817466117,-0.0011058170528615,0.0011179853288826,0.75905499356272,1473840,32975,0.0062504266150849,0.0062504603800136,0.0041569986119394,29.082801471205,0.00014786241176964,0.00014786241176964,0.00014786241176964,1497220.0107315,0.016797605828935
33350400,0.99999517035496,0.016737618019673,0.0059112913325709,0.0059113205606478,0.0049150061264538,-0.0015051781282758,0.0015053535188263,-5.7156250004867e-06,5.8794001643453e-06,-1.6758814169975e-07,3.7934536221603e-07,-0.0015766704972976,0.0015728182172687,-0.0015728364529771,0.0015766441482634,-0.001576534225782,0.0015729788447458,-0.0015726374877487,0.0015768683984638,-0.0013477358415459,0.0013366211773967,-0.0013362838518974,0.0013480481822153,3.4972971992044e-07,-1.9033155998996e-07,3.385149532549e-07,-1.1780475867907e-07,-0.0015051794213287,0.0015053686600328,-0.0015745138514809,0.001575017778922,-0.0015746370896651,0.0015748711071386,-0.0015746500342743,0.0015748362669388,-0.0015748370236647,0.0015746644039041,-0.0013418790931352,0.0013424036500058,-0.0013423787481835,0.0013419493426909,-0.0015064765726851,0.0015070416436796,-0.0015070464045306,0.0015064178036218,6.1103446741838e-06,-5.5168217572338e-06,-0.00099903944139559,0.00099961946601954,7.4133680639091e-08,5.2651330210124e-07,-0.0010529237909835,0.0010572149839329,-0.001052744867238,0.0010573599170834,-0.0010567968035787,0.0010533363619021,-0.0010566469090076,0.001053472952365,-0.0011173840916414,0.001106689546848,-0.0011059232050235,0.0011180946169422,0.76237038226258,1473840,32975,0.0062518238491752,0.0062518576165456,0.0041573826837325,29.205061563005,0.00014884049250404,0.00014884049250404,0.00014884049250404,1495324.4968714,0.016800838343161
33436800,0.99999534764663,0.016737620964841,0.0059112923754382,0.0059113216035151,0.0049150069858879,-0.0015055225545629,0.0015057134150333,-5.7081732973069e-06,5.8872710786374e-06,-1.6220791869816e-07,3.896072497223e-07,-0.0015769730888069,0.001573135279092,-0.001573139079878,0.0015769602715564,-0.0015768364024113,0.0015732970411554,-0.0015729380893944,0.0015771868464058,-0.0013480981341894,0.0013369984014557,-0.001336643563129,0.0013484264494703,3.5216768554463e-07,-1.9274453703476e-07,3.4194106171361e-07,-1.207199175493e-07,-0.0015055312325787,0.0015057209839368,-0.0015748210825959,0.0015753291616813,-0.0015749465275616,0.0015751812184444,-0.0015749580806555,0.0015751459177925,-0.0015751480865893,0.0015749718433032,-0.0013422451836135,0.001342775061402,-0.0013427525343866,0.0013423145938635,-0.0015068751609249,0.0015074432768568,-0.0015074511020053,0.0015068143930098,6.108355139538e-06,-5.5190825248801e-06,-0.00099914380739921,0.00099971942801352,6.8577555935004e-08,5.2711756282261e-07,-0.0010531251767936,0.0010574101120002,-0.00105294345495,0.0010575567487364,-0.0010569982423071,0.0010535315582725,-0.0010568466970286,0.0010536700870644,-0.0011175054395478,0.0011068081448791,-0.0011060437382927,0.0011182132514348,0.76586133143749,1473840,32975,0.0062532809203027,0.0062533142994805,0.0041578096889155,29.335447885074,0.00014988358308059,0.00014988358308059,0.00014988358308059,1493413.2377596,0.016804235834583
33523200,0.9999955197073,0.016737623836834,0.0059112933921835,0.0059113226202601,0.0049150078243907,-0.0015058769055679,0.0015060680142428,-5.709034413144e-06,5.888358377741e-06,-1.64602604785e-07,3.9233833857963e-07,-0.0015772817853788,0.0015734418215931,-0.0015734470982942,0.0015772673888197,-0.0015771437137454,0.0015736055119514,-0.0015732444440976,0.0015774960083575,-0.0013484769590901,0.0013373765407766,-0.0013370197749554,0.0013488066659148,3.557150380342e-07,-1.9424203853053e-07,3.472622063972e-07,-1.2342551962424e-07,-0.001505884527168,0.0015060767298098,-0.0015751251205651,0.0015756399039609,-0.001575253224456,0.0015754897705477,-0.001575263620873,0.001575455136605,-0.0015754565912089,0.0015752782456868,-0.0013426188859224,0.0013431576473861,-0.0013431343282274,0.0013426892178008,-0.001507273309615,0.0015078463942071,-0.0015078547499566,0.001507211351541,6.110127148799e-06,-5.5192732518976e-06,-0.00099924004859681,0.00099981737412544,6.5312404313263e-08,5.3186796222255e-07,-0.0010533322982858,0.0010576170759075,-0.0010531477107494,0.0010577661008841,-0.0010572059302017,0.0010537377626727,-0.0010570517126798,0.0010538790401273,-0.0011176135802294,0.0011069190028335,-0.0011061497654355,0.0011183257045798,0.76950074989239,1473840,32975,0.0062547475076087,0.0062547810731619,0.0041582157207666,29.46657715403,0.00015093261723224,0.00015093261723224,0.00015093261723224,1491488.1687576,0.01680763196066
33609600,0.99999568664302,0.016737626619446,0.0059112943774213,0.0059113236054975,0.0049150086365276,-0.0015062390187047,0.0015064179059805,-5.716411727306e-06,5.8836672380954e-06,-1.7213607216589e-07,3.8747803251318e-07,-0.0015775889549271,0.0015737342758776,-0.0015737532571905,0.0015775619012252,-0.0015774485318664,0.0015738991375412,-0.001573550114523,0.0015777903810438,-0.0013488784956459,0.0013377665664597,-0.0013374215199709,0.0013491985343605,3.5413250630869e-07,-1.986178923814e-07,3.4633713581394e-07,-1.2943581483795e-07,-0.0015062439647585,0.0015064293900201,-0.0015754277569257,0.0015759385286634,-0.0015755573753159,0.0015757853663905,-0.0015755680972006,0.0015757527840356,-0.0015757614765585,0.0015755744104961,-0.0013430175988204,0.001343553238379,-0.0013435362613656,0.0013430797185253,-0.0015076728663078,0.0015082400932552,-0.0015082551102671,0.0015076036492702,6.1150948917932e-06,-5.51717191246e-06,-0.00099932678386343,0.00099991122439461,6.6686569056914e-08,5.384880836218e-07,-0.0010535511109306,0.0010578419393251,-0.0010533657281891,0.0010579933377859,-0.001057425838319,0.0010539616125566,-0.0010572694804188,0.0010541046670668,-0.0011177004302153,0.0011070117798081,-0.0011062345291956,0.0011184218438081,0.76843341922685,1473840,32975,0.0062562203266879,0.0062562540850544,0.0041585935391771,29.597782951774,0.00015198226361419,0.00015198226361419,0.00015198226361419,1489550.1164765,0.016811012101293
33696000,0.99999584855857,0.016737629341277,0.005911295340706,0.0059113245687821,0.0049150094317889,-0.0015064103579312,0.0015065905023922,-5.7162835614996e-06,5.8847880653081e-06,-1.7119471726919e-07,3.8775050374683e-07,-0.0015778325563779,0.0015739790409588,-0.0015739965185589,0.0015778069827739,-0.0015776922906616,0.0015741436966601,-0.0015737935701243,0.0015780352278524,-0.0013489682207331,0.0013378563417131,-0.0013375101576308,0.0013492891112601,3.5363952832259e-07,-1.9842737116134e-07,3.4504913707351e-07,-1.2842838209482e-07,-0.0015064160941293,0.0015066012257727,-0.001575672584993,0.0015761820987022,-0.0015758014529545,0.0015760296643499,-0.0015758127406674,0.0015759965775923,-0.0015760053468713,0.0015758190012389,-0.0013431083424351,0.0013436414993705,-0.0013436247445918,0.0013431705145614,-0.0015077906909115,0.0015083575111045,-0.0015083723011564,0.0015077219837476,6.1160038368665e-06,-5.5172805589727e-06,-0.00099937530243233,0.00099996044569782,6.8154287304188e-08,5.3768046153345e-07,-0.0010536000871693,0.0010578926693988,-0.0010534154941995,0.0010580433818388,-0.0010574751345177,0.0010540120313176,-0.0010573195196449,0.0010541543240592,-0.0011177610192978,0.0011070714287724,-0.0011062939902292,0.0011184824334666,0.77489380980925,1473840,32975,0.0062569321056357,0.0062569659252682,0.0041587963706698,29.72899031882,0.00015303192255056,0.00015303192255056,0.00015303192255056,1490664.7054111,0.016812665447841
33782400,0.99999600555825,0.016737631983064,0.0059112962756914,0.0059113255037675,0.004915010203605,-0.0015069097377963,0.001507089382407,-5.7181525098508e-06,5.8861614345925e-06,-1.7277149202866e-07,3.8887710619224e-07,-0.0015781956642703,0.0015743396656167,-0.0015743585650265,0.0015781686978996,-0.0015780545781227,0.0015745052084402,-0.0015741547469866,0.0015783978591023,-0.0013495739117729,0.0013384592457378,-0.0013381127908576,0.0013498953807027,3.5483947056128e-07,-1.9994062106318e-07,3.4949028883531e-07,-1.3320540410812e-07,-0.0015069153679369,0.0015071001851024,-0.0015760326446374,0.0015765457744798,-0.0015761645400023,0.0015763903042321,-0.001576173645277,0.0015763593573228,-0.0015763693032766,0.001576178675207,-0.0013437089574808,0.0013442500690591,-0.0013442343367663,0.001343769731742,-0.0015084110664993,0.0015089773586722,-0.0015089952877281,0.0015083389397628,6.1184222741101e-06,-5.5181101695478e-06,-0.00099952734887802,0.0010001141786186,6.4449604294299e-08,5.4316227353988e-07,-0.0010539398754221,0.0010582322023487,-0.0010537521929275,0.0010583859034726,-0.0010578160284215,0.0010543504563707,-0.0010576573807966,0.0010544958063458,-0.0011179361935992,0.0011072480375485,-0.0011064660879951,0.001118662262661,0.77568247433388,1473840,32975,0.0062589971478331,0.0062590309115481,0.0041594363220334,29.860202853809,0.00015408162283047,0.00015408162283047,0.00015408162283047,1486559.0504495,0.016817516984427
33868800,0.99999615774575,0.016737634522735,0.0059112971749772,0.0059113264030532,0.0049150109447047,-0.0015071392249763,0.0015073184165064,-5.7185164762338e-06,5.8859284247996e-06,-1.7277598499258e-07,3.88454159977e-07,-0.0015784561597885,0.0015746000213501,-0.0015746188287689,0.0015784287084241,-0.0015783154924879,0.0015747652943234,-0.0015744151119084,0.001578657892273,-0.0013497634757771,0.0013386475085631,-0.0013383012005137,0.0013500832288981,3.554842700305e-07,-1.9889615675156e-07,3.5194821120609e-07,-1.335540921602e-07,-0.0015071436007048,0.0015073304179576,-0.0015762913064185,0.0015768074805468,-0.0015764245379608,0.0015766512842136,-0.0015764319103952,0.0015766209033648,-0.0015766289030252,0.0015764393989658,-0.0013438944909953,0.0013444404436064,-0.0013444230209857,0.001343957835826,-0.0015086147754782,0.0015091812280598,-0.001509198920816,0.0015085433594607,6.1186013115045e-06,-5.5181121987147e-06,-0.00099957793129515,0.0010001646181472,6.2812060467051e-08,5.4432452453997e-07,-0.00105404361685,0.0010583348785457,-0.0010538547727974,0.0010584894352746,-0.0010579198739051,0.0010544531114767,-0.0010577602694919,0.0010545993634313,-0.0011179903276901,0.0011073032125971,-0.0011065195324377,0.001118717265728,0.76926648083051,1473840,32975,0.0062599457495206,0.0062599793982135,0.0041596470854047,29.991420414553,0.00015513136331643,0.00015513136331643,0.00015513136331643,1486576.088963,0.016819660185287
33955200,0.99999630522408,0.016737636977436,0.0059112980442896,0.0059113272723655,0.0049150116607813,-0.0015071302302695,0.0015073121176719,-5.7161448911556e-06,5.8862528174849e-06,-1.6896759841785e-07,3.8686736570465e-07,-0.0015786230204769,0.0015747717612251,-0.0015747859847038,0.0015786002004239,-0.0015784831579772,0.0015749352899311,-0.0015745841809383,0.0015788269747986,-0.0013495912248036,0.0013384790751034,-0.0013381324482109,0.0013499119362219,3.5650238815933e-07,-1.9248072954901e-07,3.5236005943549e-07,-1.2643595723115e-07,-0.0015071322497648,0.0015073265220924,-0.0015764586903529,0.001576979453019,-0.0015765908003296,0.0015768246038811,-0.0015765976854833,0.00157679363904,-0.0015767924161905,0.0015766149760072,-0.0013437228428936,0.001344270368182,-0.001344243012974,0.0013437949150449,-0.0015084458375747,0.001509015532475,-0.0015090243152014,0.0015083848173601,6.1199654839876e-06,-5.5151996698537e-06,-0.00099960635587444,0.0010001971867061,6.8288582783965e-08,5.4344445474579e-07,-0.0010539737876921,0.001058270354205,-0.0010537872788287,0.0010584232386354,-0.0010578492212251,0.0010543890115902,-0.0010576912134188,0.0010545328711296,-0.0011180219947978,0.0011073377567889,-0.0011065517625139,0.0011187508718145,0.76728907668633,1473840,32975,0.0062599148378944,0.0062599485852176,0.0041597702749666,30.122634612474,0.00015618107689979,0.00015618107689979,0.00015618107689979,1490891.0834681,0.016819721124069
34041600,0.999996448191,0.016737639350186,0.0059112988847066,0.0059113281127826,0.0049150123526964,-0.0015073571332001,0.0015075462175254,-5.7122790751109e-06,5.8896452811716e-06,-1.6570574742651e-07,3.905866581056e-07,-0.0015789194743803,0.0015750759973382,-0.0015750827216888,0.0015789035994715,-0.0015787801555864,0.0015752394614134,-0.0015748805001159,0.001579130850532,-0.0013497259365816,0.0013386206597963,-0.0013382664545158,0.0013500536561535,3.5793682050195e-07,-1.9139513971154e-07,3.5292993441397e-07,-1.2416815700118e-07,-0.0015073615982673,0.00150755871849,-0.0015767577512434,0.0015772806998156,-0.0015768893871114,0.0015771271273481,-0.0015768966835631,0.0015770949876331,-0.0015770913611972,0.0015769170766811,-0.0013438596190716,0.0013444084855341,-0.0013443797937727,0.0013439353285056,-0.0015086416443402,0.0015092148396303,-0.0015092215978871,0.0015085843086705,6.1187080290905e-06,-5.5158051331921e-06,-0.0009997359662343,0.0010003247764144,6.7898518984264e-08,5.4109169482308e-07,-0.0010540640437084,0.0010583594940444,-0.0010538778822482,0.00105851123643,-0.0010579393601211,0.0010544783689269,-0.0010577823671284,0.0010546214791618,-0.0011182018253556,0.0011075154830232,-0.0011067321102307,0.0011189277118216,0.76515353746564,1473840,32975,0.006260869385902,0.0062609042558133,0.0041603042223565,30.265684708588,0.0001573254776687,0.0001573254776687,0.0001573254776687,1491984.1620754,0.016822205955163
34128000,0.99999658773354,0.016737641659019,0.0059112997026085,0.0059113289306846,0.0049150130257262,-0.0015078445577118,0.0015080298310502,-5.714864723085e-06,5.8889306784379e-06,-1.6994629028972e-07,3.9056285836449e-07,-0.00157947129682,0.0015756224525321,-0.0015756336878017,0.0015794498036513,-0.0015793313410628,0.0015757867818381,-0.0015754297850589,0.0015796788092574,-0.0013501201866846,0.001339010034753,-0.0013386573866601,0.0013504454737845,3.6721994538584e-07,-1.8635057534975e-07,3.6080123646833e-07,-1.1704116350831e-07,-0.001507839730067,0.0015080516237435,-0.0015772977165607,0.0015778375194901,-0.0015774305457539,0.001577684222882,-0.0015774378303979,0.0015776499977011,-0.0015776337695759,0.0015774722023734,-0.0013442426364629,0.0013448058836601,-0.0013447656254789,0.0013443335321164,-0.0015090894315624,0.0015096803821435,-0.0015096752264389,0.0015090469733595,6.1183050158677e-06,-5.518059096001e-06,-0.0010000822014768,0.0010006679838251,6.5550071941621e-08,5.3917781251405e-07,-0.0010543805537086,0.0010586741705967,-0.0010541938329771,0.0010588255597359,-0.0010582563180055,0.0010547923065533,-0.001058099653362,0.0010549350540862,-0.0011186110792952,0.0011079193879705,-0.0011071395292428,0.0011193347622743,0.76284119479766,1473840,32975,0.0062628797792503,0.0062629146476863,0.0041617353023643,30.535934135355,0.00015948747308284,0.00015948747308284,0.00015948747308284,1493530.1019511,0.016827749111206
34214400,0.99999672390217,0.01673764389863,0.0059113004962518,0.0059113297243279,0.0049150136780507,-0.0015083457804595,0.0015085280895803,-5.7182407423721e-06,5.8895910757066e-06,-1.7284384740616e-07,3.9057597652922e-07,-0.0015800425164682,0.0015761883151824,-0.0015762037211981,0.0015800171386374,-0.0015799018647028,0.0015763536252543,-0.0015759988757762,0.0015802472365142,-0.0013505177979045,0.0013394019162543,-0.0013390508281808,0.0013508417667465,3.7046713800594e-07,-1.8603383630947e-07,3.6358112524158e-07,-1.1623072754454e-07,-0.0015083376992428,0.0015085531051416,-0.0015778639004476,0.0015784085640998,-0.001577997083736,0.0015782545489506,-0.0015780048346389,0.0015782201563898,-0.0015782012954033,0.0015780416209021,-0.0013446353365396,0.0013452028054362,-0.0013451601554827,0.0013447290267736,-0.0015095563716971,0.0015101531488394,-0.0015101452418713,0.0015095166924918,6.1152736388488e-06,-5.5250774355357e-06,-0.0010004472458057,0.0010010231659771,5.9598042604502e-08,5.3524280045438e-07,-0.0010547113076858,0.0010589956043689,-0.0010545237618181,0.0010591479067115,-0.0010585882514218,0.0010551126414171,-0.0010584309455611,0.0010552560078396,-0.0011190462318893,0.0011083412496023,-0.0011075711508042,0.0011197612807906,0.75834979580307,1473840,32975,0.0062649490997975,0.0062649839043237,0.0041632302329163,30.813685822483,0.00016170948657986,0.00016170948657986,0.00016170948657986,1495235.6185064,0.016833477013703
34300800,0.99999685669299,0.016737646066776,0.0059113012648783,0.0059113304929544,0.0049150143089436,-0.0015087540128078,0.0015089373261273,-5.7203456581352e-06,5.8924421611949e-06,-1.7091641919942e-07,3.8965402505769e-07,-0.0015805727175434,0.0015767188293877,-0.0015767323050239,0.0015805496015023,-0.0015804329365218,0.0015768833555901,-0.0015765285761242,0.0015807785885477,-0.0013507824131855,0.0013396617374773,-0.0013393111228663,0.0013511059771141,3.6727038993846e-07,-1.863867194004e-07,3.6047586404688e-07,-1.1648559342095e-07,-0.0015087480040557,0.0015089599921254,-0.0015783968856168,0.001578936625637,-0.0015785295227277,0.0015787832613008,-0.0015785367286827,0.001578748642854,-0.0015787322363515,0.0015785714168436,-0.0013448999933365,0.0013454615855909,-0.0013454215977517,0.0013449914166562,-0.0015098855922682,0.0015104766603501,-0.0015104712151531,0.001509843349879,6.1111330457674e-06,-5.53440120714e-06,-0.0010008048421151,0.0010013673410457,5.4300169464478e-08,5.2718274360464e-07,-0.0010549845192039,0.0010592582377131,-0.0010547981282633,0.0010594097345348,-0.0010588632942338,0.001055373585086,-0.0010587070425433,0.0010555159405936,-0.0011194691222126,0.0011087444679711,-0.0011079878836902,0.0011201693815974,0.75287686054248,1473840,32975,0.0062666420385682,0.006266676269523,0.004164685232602,31.092125428284,0.00016393700342627,0.00016393700342627,0.00016393700342627,1498510.6161101,0.016838397910612
34387200,0.99999698610059,0.016737648185861,0.0059113020159753,0.0059113312440513,0.0049150149258344,-0.0015091174792688,0.0015093098992041,-5.7174189131607e-06,5.8984938566016e-06,-1.658081874211e-07,3.9374828108731e-07,-0.0015810913099365,0.0015772455916147,-0.001577249864018,0.0015810776110852,-0.0015809514031132,0.0015774099871873,-0.0015770465204314,0.0015813061703704,-0.001350965215086,0.0013398502044628,-0.0013394911666656,0.0013512973619211,3.5806306226678e-07,-1.9475227610282e-07,3.501581399845e-07,-1.2392040066948e-07,-0.0015091248026645,0.0015093190628356,-0.0015789290838732,0.0015794501957188,-0.0015790607898767,0.001579297438907,-0.0015790689055695,0.0015792620842181,-0.0015792630937596,0.0015790858018454,-0.0013450963748726,0.0013456369057565,-0.0013456139600616,0.0013451698738444,-0.0015101597509755,0.0015107328410999,-0.0015107435813576,0.0015101004144672,6.1108159550338e-06,-5.538215643682e-06,-0.001001160032003,0.0010017183154208,5.375073772827e-08,5.2393948028608e-07,-0.0010552132001646,0.0010594843312709,-0.0010550279603043,0.0010596352717009,-0.0010590931320737,0.0010555986339259,-0.0010589375088174,0.0010557400945663,-0.0011198994100596,0.0011091662411182,-0.0011084142864448,0.0011205945566742,0.75509894546307,1473840,32975,0.0062681666938418,0.0062682005722914,0.0041661486555799,31.370630166061,0.00016616504132849,0.00016616504132849,0.00016616504132849,1502575.2545856,0.01684298517649
34473600,0.99999711212273,0.016737650256894,0.0059113027498908,0.0059113319779668,0.0049150155290364,-0.0015098447621309,0.0015100477477668,-5.7126728072473e-06,5.9042779049064e-06,-1.6301537330871e-07,4.0184256145642e-07,-0.0015817622377129,0.0015779265134631,-0.0015779212320495,0.0015817570438909,-0.0015816225622632,0.0015780918140614,-0.0015777155213078,0.0015819884802084,-0.0013516818026219,0.00134057602385,-0.0013402036179058,0.0013520252559195,3.6074047600219e-07,-1.9728891408804e-07,3.5511459996558e-07,-1.2909001301792e-07,-0.0015098572843685,0.001510051870808,-0.0015796017873598,0.0015801278046475,-0.0015797364488244,0.001579973071816,-0.0015797427857954,0.001579937894004,-0.0015799410160709,0.0015797581082403,-0.0013458129878397,0.0013463619594765,-0.0013463429680682,0.001345884805625,-0.0015109988947888,0.0015115754867183,-0.0015115891291045,0.0015109363342108,6.112959119534e-06,-5.5364343209617e-06,-0.0010015839969221,0.0010021459010588,5.0303451488734e-08,5.2990818104858e-07,-0.0010556910403267,0.0010599631786907,-0.0010555012544263,0.0010601164119809,-0.0010595708382808,0.0010560772597859,-0.0010594135216558,0.0010562220084077,-0.0011204232059494,0.0011096960752701,-0.0011089376048968,0.0011211245246432,0.75783068748821,1473840,32975,0.006271199158462,0.0062712333626054,0.0041679198448155,31.649140412327,0.00016839312329862,0.00016839312329862,0.00016839312329862,1500541.6537249,0.016850954392774
34560000,0.99999723476071,0.016737652281635,0.0059113034672312,0.0059113326953069,0.0049150161190966,-0.0015105882580801,0.0015107784788635,-5.7206729033315e-06,5.8994643027678e-06,-1.7381415451163e-07,4.0047510241369e-07,-0.0015824222494,0.0015785678737609,-0.0015785802973124,0.0015824014293537,-0.0015822779195808,0.0015787372897466,-0.0015783716985189,0.0015826356248461,-0.0013524437556413,0.0013413265961088,-0.0013409640350667,0.0013527795178187,3.6157576651732e-07,-2.0577871898609e-07,3.5470807653851e-07,-1.3686384030921e-07,-0.0015105984879272,0.0015107846352097,-0.0015802554576256,0.0015807766693325,-0.0015803898830146,0.001580619043822,-0.0015804001757479,0.0015805861201785,-0.0015805991099876,0.0015804025116174,-0.0013465727183691,0.0013471192601248,-0.0013471086809172,0.001346631908088,-0.0015118381963409,0.0015124152264547,-0.0015124370482623,0.0015117645743243,6.1008680565876e-06,-5.5514459918908e-06,-0.001002010132524,0.0010025459156496,3.413928819818e-08,5.2144727731979e-07,-0.0010562264742424,0.0010604701442778,-0.0010560352181985,0.0010606268565973,-0.0010601075305544,0.0010565835946196,-0.0010599463401029,0.0010567315872322,-0.001120929339327,0.0011101770257748,-0.0011094427353653,0.0011216081031418,0.76127760693618,1473840,32975,0.0062742501946306,0.0062742838613662,0.0041696384342882,31.927649490365,0.00017062119592292,0.00017062119592292,0.00017062119592292,1498521.4025601,0.016858907185107
34646400,0.99999735401946,0.016737654262085,0.0059113041686863,0.0059113333967618,0.0049150166966368,-0.0015113175613695,0.0015115062471728,-5.7248728817334e-06,5.9029185082643e-06,-1.771139605167e-07,4.020126016725e-07,-0.001583072451973,0.0015792123084352,-0.0015792275917655,0.0015830477289192,-0.0015829289218604,0.00157938445451,-0.0015790175113923,0.0015832845587865,-0.0013532165556316,0.0013420911563519,-0.0013417263498905,0.0013535508748235,3.6208526125258e-07,-2.0996479176403e-07,3.5878674776693e-07,-1.4141278489542e-07,-0.0015113279669769,0.0015115126952777,-0.0015809009324619,0.0015814263404656,-0.0015810393998688,0.0015812659323375,-0.0015810466249689,0.0015812334755432,-0.001581249985767,0.0015810469946869,-0.0013473349081475,0.001347889202437,-0.0013478827194859,0.0013473954707214,-0.001512664859506,0.0015132395233032,-0.001513270565514,0.0015125873723822,6.1071380716107e-06,-5.5525822660798e-06,-0.0010024174496961,0.0010029577772476,3.1838353444657e-08,5.2723345361116e-07,-0.0010567414093221,0.0010609900520684,-0.001056546219727,0.0010611484694203,-0.0010606249165545,0.0010571007391229,-0.0010604617434693,0.0010572513069458,-0.0011213927631227,0.0011106403248929,-0.0011098993573606,0.0011220794433747,0.76566262184966,1473840,32975,0.0062772655521054,0.0062773001863047,0.0041713424881738,32.206156195417,0.00017284924956333,0.00017284924956333,0.00017284924956333,1496175.9709862,0.016866774283556
34732800,0.99999747065854,0.016737656212594,0.0059113048593117,0.0059113340873871,0.0049150172658949,-0.0015122961132637,0.0015124677884447,-5.7384358219878e-06,5.8984020589984e-06,-1.8865791185703e-07,3.9699043288203e-07,-0.0015839486954287,0.0015800659023666,-0.0015801008599216,0.0015839059143164,-0.0015837997729952,0.0015802395005221,-0.0015798891375425,0.0015841430679788,-0.001354249119564,0.0013431025220564,-0.0013427562234879,0.0013545707163125,3.6274418261035e-07,-2.1610146917637e-07,3.561427849233e-07,-1.478803041881e-07,-0.0015123017945721,0.0015124785390824,-0.0015817690509051,0.001582289054558,-0.0015819077916127,0.0015821264785585,-0.0015819178664277,0.0015820945982526,-0.0015821203705032,0.0015819068091359,-0.0013483657239139,0.001348911791795,-0.0013489119464334,0.001348410417585,-0.0015137342386402,0.0015143088551526,-0.0015143420306945,0.0015136466663461,6.1223298065952e-06,-5.5468952691432e-06,-0.0010029813248355,0.001003543448362,4.1642163711718e-08,5.4149468326156e-07,-0.0010574694251522,0.0010617409387042,-0.0010572747274563,0.0010619016660869,-0.0010613565205869,0.0010578483681481,-0.0010611908276992,0.0010580007463393,-0.0011220115757767,0.0011112737110496,-0.0011105094632396,0.0011227198372081,0.77095584805714,1473840,32975,0.0062812804993996,0.0062813142592318,0.0041737326430209,32.601613428996,0.00017601290743197,0.00017601290743197,0.00017601290743197,1494086.1908293,0.016877370294426
34819200,0.99999758491479,0.016737658119684,0.0059113055346985,0.0059113347627738,0.0049150178222121,-0.0015133587917389,0.0015135316169496,-5.7439874643871e-06,5.905067700508e-06,-1.9054509916852e-07,4.0008629851999e-07,-0.0015849177264258,0.0015810304243409,-0.0015810658056223,0.0015848743456598,-0.0015847672230994,0.0015812055839538,-0.0015808523837263,0.0015851132629821,-0.0013553665871332,0.0013442103950549,-0.0013438610594397,0.001355690672282,3.6434052191272e-07,-2.195030741397e-07,3.5846015217926e-07,-1.5196520269653e-07,-0.0015133659330327,0.0015135409174534,-0.0015827346854536,0.0015832567475307,-0.0015828756323208,0.0015830920847154,-0.0015828851111208,0.0015830607072895,-0.0015830899022537,0.0015828706966198,-0.0013494765813285,0.0013500255108631,-0.0013500293676487,0.0013495180652276,-0.0015148961163834,0.0015154719644917,-0.0015155091583817,0.001514804530329,6.1436358933178e-06,-5.5378356939386e-06,-0.0010036044902348,0.0010041968032339,5.337515084275e-08,5.5976892511222e-07,-0.0010582614440534,0.001062564995463,-0.0010580645334985,0.0010627279394711,-0.0010621526239449,0.0010586683911178,-0.0010619847695263,0.0010588228935379,-0.0011226842697732,0.0011119667465859,-0.0011111698282079,0.0011234251166611,0.76949572851607,1473840,32975,0.0062856811581403,0.0062857149378385,0.0041763866227292,33.04516736748,0.00017956133893984,0.00017956133893984,0.00017956133893984,1491897.9659463,0.016889020149438
34905600,0.99999769671702,0.016737659982703,0.0059113061945784,0.0059113354226537,0.0049150183654705,-0.0015141434407176,0.0015143189438723,-5.7484769880722e-06,5.9123502231599e-06,-1.8785208002996e-07,3.9938423761845e-07,-0.0015857786856366,0.0015818937217273,-0.0015819233823285,0.0015857384624722,-0.0015856321006653,0.0015820661925148,-0.0015817088029645,0.0015859772092893,-0.0013560742014427,0.0013449040329536,-0.0013445510251283,0.0013563957472472,3.7079560807079e-07,-2.0971562619337e-07,3.7206247254015e-07,-1.4527702831615e-07,-0.0015141454696864,0.0015143387723456,-0.001583589809274,0.0015841326262153,-0.0015837358401352,0.0015839666978855,-0.001583736405099,0.0015839350629755,-0.0015839476548216,0.0015837442204436,-0.0013501574709143,0.0013507349947107,-0.0013507229195502,0.0013502262279365,-0.0015156201020482,0.0015162056614595,-0.0015162348103569,0.0015155448242502,6.1601622373408e-06,-5.5336944946626e-06,-0.0010041717124146,0.0010047829089986,5.8571224870197e-08,5.714201555231e-07,-0.0010588487362892,0.0010631738991376,-0.0010586479645564,0.0010633379777681,-0.0010627441144333,0.0010592725882391,-0.0010625749272205,0.0010594282856941,-0.0011232784656642,0.0011125685088481,-0.0011117484306151,0.001124040499533,0.76818887696369,1473840,32975,0.0062889350189452,0.0062889800160746,0.0041787801322344,33.491794928702,0.00018313435942961,0.00018313435942961,0.00018313435942961,1494183.8813514,0.016898082705429
34992000,0.99999780598027,0.01673766179333,0.0059113068361226,0.0059113360641995,0.0049150188930082,-0.0015149647883698,0.001515181575447,-5.730867056736e-06,5.9361663795483e-06,-1.6782187048717e-07,4.2112699283254e-07,-0.0015866754860364,0.0015828273229263,-0.0015828176222943,0.0015866761423043,-0.0015865262122355,0.001583001533347,-0.0015826043350614,0.0015869152391183,-0.0013567740077641,0.0013456417200444,-0.0013452471843713,0.0013571396706119,3.7856950881802e-07,-2.0323210184888e-07,3.8231963386235e-07,-1.4366561621119e-07,-0.001514977848155,0.0015151840219529,-0.001584494145401,0.0015850516341541,-0.0015846401116501,0.0015848823008065,-0.0015846436008136,0.0015848562453948,-0.0015848542482599,0.0015846609601229,-0.0013508674777063,0.0013514645971201,-0.0013514370435324,0.0013509436681736,-0.0015164287748712,0.001517028105024,-0.0015170428096888,0.0015163628313824,6.1626890094057e-06,-5.5370725306437e-06,-0.0010047693384645,0.0010053806735156,5.4578992141372e-08,5.7677909371257e-07,-0.0010594351382273,0.0010637578612752,-0.0010592323893867,0.0010639265989201,-0.0010633319540699,0.001059855561109,-0.0010631586400212,0.0010600151607475,-0.0011239505281551,0.0011132395886888,-0.0011124163876088,0.0011247167478675,0.76399337208628,1473840,32975,0.0062924209550269,0.0062924528019652,0.0041812616778141,33.938715448095,0.00018670972358476,0.00018670972358476,0.00018670972358476,1496281.9885803,0.016907682233112
35078400,0.99999791262347,0.016737663552728,0.005911307459688,0.0059113366877647,0.004915019405275,-0.0015156895071924,0.0015159380289767,-5.7207346751583e-06,5.9579751838591e-06,-1.472794179327e-07,4.3205285689376e-07,-0.00158753509731,0.0015837175301276,-0.0015836734291151,0.0015875707570121,-0.0015873883024876,0.0015838888809674,-0.0015834635331326,0.0015878062875145,-0.0013573294584991,0.0013462155901033,-0.0013457934112569,0.0013577251039335,3.6135964152886e-07,-2.1050303121974e-07,3.6926757280948e-07,-1.5640389962202e-07,-0.0015157305410799,0.0015159115499907,-0.0015853828473787,0.0015859118829867,-0.0015855285875628,0.001585742192279,-0.0015855297399716,0.0015857200496945,-0.0015857394935142,0.0015855247912533,-0.0013514451189749,0.0013520192694503,-0.0013520126971393,0.0013514973006495,-0.0015171082143227,0.0015176732407239,-0.0015177111835499,0.0015170180700969,6.1663882505855e-06,-5.5451498079123e-06,-0.0010053786201563,0.0010059860518412,5.3221803163858e-08,5.7497470517255e-07,-0.0010599611116156,0.0010642839572585,-0.0010597589168738,0.0010644526992656,-0.0010638617154759,0.0010603776032776,-0.0010636886861774,0.0010605372097914,-0.0011246450111915,0.0011139179335928,-0.001113100207088,0.0011254065619406,0.76065629635447,1473840,32975,0.0062954876581645,0.0062955175340252,0.00418378135013,34.385661517576,0.00019028529214061,0.00019028529214061,0.00019028529214061,1500043.5402369,0.016916478751417
35164800,0.99999801657133,0.016737665259381,0.0059113080647358,0.005911337292812,0.0049150199018328,-0.0015164708702765,0.0015167305245795,-5.7195296115047e-06,5.9685814693479e-06,-1.4076869723825e-07,4.3650651427065e-07,-0.0015884064618827,0.0015845982944114,-0.0015845413950491,0.0015884531728355,-0.0015882617608391,0.0015847675672594,-0.0015843311124147,0.0015886878761048,-0.001358005174949,0.0013468911546947,-0.0013464579772644,0.0013584101623528,3.7222216040965e-07,-1.9767168005498e-07,3.8229943158523e-07,-1.4310162736288e-07,-0.0015165087398403,0.0015167150163807,-0.0015862505312882,0.0015868052547648,-0.0015863981649459,0.0015866362046305,-0.0015863938467009,0.0015866120719758,-0.0015866071705901,0.001586417204933,-0.0013521059598398,0.0013527083680542,-0.0013526783721753,0.0013521892374266,-0.0015178309778958,0.0015184173180865,-0.0015184353489391,0.0015177657740435,6.1732028145945e-06,-5.5481307726323e-06,-0.0010060174238214,0.0010066277802837,5.4495311745515e-08,5.7546845982583e-07,-0.0010605627189603,0.0010648934830656,-0.001060360232594,0.0010650602943025,-0.0010644670067381,0.0010609826074211,-0.0010642946046614,0.001061141548379,-0.0011253470145862,0.0011146124915481,-0.0011137921320042,0.0011261113983157,0.75704962580609,1473840,32975,0.0062987459844772,0.0062987920237344,0.0041864383196935,34.832609554981,0.00019386087643984,0.00019386087643984,0.00019386087643984,1502947.6242089,0.016925823414901
35251200,0.99999811775481,0.016737666912223,0.0059113086508788,0.0059113378789566,0.0049150203823872,-0.0015172807404683,0.0015174977664459,-5.7437273296802e-06,5.9503061227906e-06,-1.590143693009e-07,4.117565660938e-07,-0.0015893190015606,0.0015854684120551,-0.0015854511850345,0.0015893247259709,-0.0015891762547652,0.0015856357777038,-0.0015852430921799,0.0015895569765456,-0.0013586797784462,0.0013475154770876,-0.0013471257302011,0.0013590389205087,3.9189669464226e-07,-1.7140199290951e-07,4.0904833842987e-07,-1.2317470067225e-07,-0.0015172733650577,0.0015175258441322,-0.0015871168398997,0.001587718140718,-0.0015872677177946,0.0015875466216988,-0.0015872578849262,0.0015875271820804,-0.0015874742668469,0.0015873300299383,-0.001352725310585,0.0013533830461036,-0.0013533053920956,0.0013528587756433,-0.0015185466377941,0.0015191696346913,-0.001519145804548,0.0015185257820557,6.1801697901406e-06,-5.5470436864663e-06,-0.0010066545621286,0.0010072723511464,5.4586080352891e-08,5.8224001864118e-07,-0.001061138354698,0.0010654761904465,-0.0010609334188175,0.0010656451224991,-0.0010650445776366,0.0010615633020222,-0.0010648696631641,0.0010617245980252,-0.0011260650007785,0.0011153347563732,-0.0011145041450381,0.0011268394720297,0.75326375813223,1473840,32975,0.0063020111939547,0.006302053798387,0.0041890976821007,35.279557127469,0.00019743645701975,0.00019743645701975,0.00019743645701975,1506114.7591539,0.016935164634337
35337600,0.99999821577976,0.016737668505053,0.0059113092159154,0.0059113384439944,0.0049150208451429,-0.0015179552498265,0.0015181418330626,-5.761128636444e-06,5.9368807181511e-06,-1.7153165041806e-07,3.9381958561659e-07,-0.0015901053437122,0.001586224689919,-0.0015862360646025,0.0015900827672283,-0.0015899639176144,0.0015863906516442,-0.0015860301317373,0.0015903130673738,-0.0013591998781785,0.0013479999317222,-0.001347642091437,0.0013595263398869,3.9437963502844e-07,-1.6353114308821e-07,4.1641358234584e-07,-1.2087795841309e-07,-0.0015179265997799,0.0015181888786961,-0.001587881748978,0.0015884922062031,-0.0015880338443574,0.0015883188989768,-0.0015880217677763,0.0015883035802217,-0.0015882387784951,0.0015881048647544,-0.0013532193723176,0.0013538929772386,-0.0013538031460371,0.0013533632824254,-0.0015191489845543,0.0015197755023115,-0.0015197418082499,0.0015191367358799,6.1813505000174e-06,-5.5497945540707e-06,-0.0010071968459923,0.0010078130937478,5.1287186918115e-08,5.8419876166416e-07,-0.0010615990895633,0.0010659343939991,-0.0010613926257417,0.0010661055522338,-0.001065506590347,0.0010620206873914,-0.0010653295824426,0.001062183866265,-0.0011266967324824,0.0011159637804746,-0.0011151322255118,0.001127471634229,0.74935537516952,1473840,32975,0.0063047413249666,0.0063047791520531,0.0041913446019757,35.66353835686,0.00020050830685488,0.00020050830685488,0.00020050830685488,1509261.9497848,0.016942996833875
35424000,0.99999831012143,0.016737670029771,0.0059113097569576,0.005911338985037,0.0049150212877766,-0.0015184100950855,0.0015185902212475,-5.766224086034e-06,5.9352877666704e-06,-1.7152652432601e-07,3.87417457624e-07,-0.0015906721434688,0.001586785824053,-0.0015868018514242,0.0015906456983546,-0.0015905325242805,0.0015869499472059,-0.0015865984425878,0.0015908736742963,-0.001359506014114,0.0013482947034943,-0.0013479460977347,0.0013598242818892,3.834022314303e-07,-1.6828548398119e-07,4.0918945547078e-07,-1.3001443835186e-07,-0.0015183859905558,0.0015186322452199,-0.0015884544824248,0.001589047609895,-0.0015886068909069,0.0015888732550774,-0.0015885930621934,0.0015888610055786,-0.0015888097038581,0.0015886618104891,-0.0013535275497942,0.0013541879636218,-0.001354111366816,0.0013536559197371,-0.0015195515665638,0.0015201552582673,-0.0015201366181353,0.0015195226314835,6.1828959067028e-06,-5.5517717903691e-06,-0.0010075795310419,0.0010081956494848,5.0489821167444e-08,5.8543886663157e-07,-0.001061891899984,0.0010662272312903,-0.0010616848745623,0.0010663993480652,-0.0010658005378897,0.0010623125919742,-0.0010656227971755,0.001062476404095,-0.0011271594365347,0.0011164236934405,-0.001115591650641,0.0011279346289227,0.74536386932277,1473840,32975,0.0063066117150167,0.006306648555481,0.0041929317727796,35.946798433447,0.00020277438746757,0.00020277438746757,0.00020277438746757,1512180.0271955,0.01694841336738
35510400,0.99999840080844,0.016737671504642,0.0059113102801135,0.0059113395081932,0.0049150217163355,-0.0015188476733321,0.0015190240766906,-5.7686069967735e-06,5.9334336575459e-06,-1.7071819397089e-07,3.8347091519684e-07,-0.0015912380754197,0.0015873487227645,-0.0015873684534239,0.0015912104014377,-0.0015910994397923,0.0015875118314142,-0.001587167077254,0.0015914370192241,-0.001359744085104,0.0013485280099476,-0.001348187007434,0.0013600597105251,3.5159661604743e-07,-1.9570814592816e-07,3.7634811577316e-07,-1.5904537371404e-07,-0.0015188512015859,0.0015190370168325,-0.0015890504909378,0.0015895796551561,-0.0015891997596408,0.0015894065078246,-0.0015891890973296,0.0015893957141901,-0.0015894020389902,0.0015891974427024,-0.0013538005767417,0.0013543967692204,-0.0013543773753609,0.0013538648468315,-0.0015199657679413,0.0015205079005426,-0.0015205426485423,0.0015198771983185,6.1788542392983e-06,-5.5558410271103e-06,-0.0010079585299638,0.0010085679679805,4.962196830893e-08,5.8091484357096e-07,-0.001062140800701,0.001066470714623,-0.0010619356254393,0.0010666419504242,-0.0010660495672208,0.0010625563226015,-0.0010658734559231,0.0010627191934476,-0.001127656388632,0.0011169125733833,-0.0011160904395818,0.0011284228883133,0.75005025246786,1473840,32975,0.0063084164608895,0.0063084502926971,0.0041944901521918,36.223926472144,0.00020499141177715,0.00020499141177715,0.00020499141177715,1515249.1814237,0.016953665042552
35596800,0.99999848790366,0.01673767289039,0.0059113107722543,0.0059113400003341,0.0049150221178015,-0.0015197014711799,0.00151988407352,-5.7681841696217e-06,5.9395150661015e-06,-1.7116172569139e-07,3.9025620109936e-07,-0.0015919330152584,0.0015880461110682,-0.0015880617224482,0.0015919083792382,-0.0015917933915972,0.0015882111314822,-0.0015878568735702,0.0015921384232607,-0.0013607044392286,0.0013494891556473,-0.0013491382850787,0.001361028256499,3.51083162935e-07,-2.0335336774653e-07,3.774348492677e-07,-1.6717386875549e-07,-0.0015197120886154,0.0015198904257686,-0.0015897473575701,0.0015902737751495,-0.0015898991590547,0.0015900986689239,-0.0015898870369455,0.0015900877443036,-0.0015901043944872,0.0015898859574251,-0.0013547592508014,0.0013553565425902,-0.001355348356741,0.0013548158907724,-0.0015209979235369,0.0015215375564955,-0.0015215855807207,0.0015208989273946,6.1799762166288e-06,-5.5601346874606e-06,-0.0010084088618052,0.0010090148966239,4.30166677058e-08,5.8331708453965e-07,-0.0010627583544202,0.0010670841879679,-0.0010625495062622,0.0010672580531914,-0.0010666689460529,0.0010631677577263,-0.0010664903027333,0.0010633336588629,-0.0011281773177138,0.0011174268709821,-0.0011166056290582,0.001128943784017,0.73390818515229,1473840,32975,0.0063119628013572,0.0063119976696456,0.0041963580528892,36.50048438872,0.00020720387510976,0.00020720387510976,0.00020720387510976,1511085.6021393,0.016962780092218
35683200,0.9999985714754,0.016737674228219,0.0059113112472025,0.0059113404752821,0.0049150225057342,-0.0015195237849729,0.0015196962596189,-5.77331198049e-06,5.9342206738148e-06,-1.6968982617941e-07,3.7848070633622e-07,-0.0015922652103799,0.0015883720646476,-0.0015883936543757,0.0015922355586899,-0.0015921285447022,0.0015885331705701,-0.0015881942829179,0.0015924601664307,-0.0013600061345447,0.0013487788380669,-0.0013484438165511,0.0013603158582463,3.4983621476485e-07,-1.9145223770585e-07,3.6716505239003e-07,-1.4741430005972e-07,-0.0015195241133679,0.00151971237523,-0.0015900788679897,0.0015906015949369,-0.0015902213159314,0.0015904354096864,-0.0015902154620914,0.0015904196247085,-0.0015904216228712,0.0015902283268461,-0.0013540650701927,0.0013546452332225,-0.001354621550077,0.0013541338336367,-0.0015204140129017,0.0015209596046592,-0.0015209850107473,0.0015203350018441,6.1795474289788e-06,-5.5606539787709e-06,-0.0010087023354847,0.0010093076479922,5.7883032617968e-08,5.6841888607727e-07,-0.0010625459873234,0.0010668805543961,-0.0010623477129649,0.00106704486084,-0.0010664566083993,0.0010629643121521,-0.0010662873752864,0.0010631203038729,-0.0011285724361179,0.0011178122658601,-0.0011170012207061,0.0011293278194234,0.73830504742651,1473840,32975,0.0063112098015368,0.0063112435823226,0.0041975635911946,36.776983794425,0.0002094158703554,0.0002094158703554,0.0002094158703554,1524529.091607,0.016962469650214
35769600,0.99999865159463,0.016737675518121,0.005911311704968,0.0059113409330476,0.0049150228801053,-0.0015204011594083,0.0015205715384281,-5.7765897520415e-06,5.935443168568e-06,-1.7468174202389e-07,3.8177525235823e-07,-0.0015929823425832,0.0015890845112199,-0.0015891096303897,0.0015929461370905,-0.0015928463091699,0.0015892475292665,-0.0015889049680449,0.0015931752854161,-0.0013609924962176,0.001349756030899,-0.0013494187838055,0.0013613006733756,3.4268470317215e-07,-2.0682089410239e-07,3.6369527633325e-07,-1.6358038108688e-07,-0.0015204115787063,0.0015205794263924,-0.0015908003828872,0.0015913087816514,-0.0015909465565136,0.0015911402956473,-0.0015909363386823,0.0015911237161901,-0.0015911497309163,0.0015909275311106,-0.0013550464270363,0.001355619841723,-0.0013556221634637,0.0013550975599151,-0.0015214884850507,0.0015220177007875,-0.0015220735375375,0.0015213845540575,6.1792915838242e-06,-5.564834444185e-06,-0.0010091562892729,0.001009756953439,4.879332147811e-08,5.711809905714e-07,-0.0010631559458301,0.0010674850304736,-0.0010629522053598,0.0010676520813384,-0.0010670680575037,0.0010635665401068,-0.0010668962281099,0.0010637266296655,-0.0011291024862315,0.0011183354376809,-0.0011175259431339,0.0011298558793147,0.74267460471637,1473840,32975,0.0063148365740219,0.0063148742104413,0.0041994440771111,37.053475732823,0.00021162780586258,0.00021162780586258,0.00021162780586258,1519909.0934002,0.016971764016862
35856000,0.99999872833461,0.016737676761773,0.0059113121461581,0.0059113413742378,0.0049150232413775,-0.0015212464439903,0.0015214127923035,-5.781962413557e-06,5.9366195172476e-06,-1.7859488428391e-07,3.8208156104795e-07,-0.0015936659139311,0.0015897606867343,-0.0015897917205317,0.0015936250131198,-0.0015935288484491,0.0015899247790068,-0.0015895857708817,0.0015938557708565,-0.0013619479478818,0.001350701708982,-0.0013503675389413,0.00136225392479,3.5037821670296e-07,-2.0348541784054e-07,3.7660651970298e-07,-1.6513908224504e-07,-0.0015212499324474,0.0015214289297715,-0.0015914730435751,0.0015919986171065,-0.0015916234490952,0.0015918254622913,-0.001591610705403,0.0015918125482238,-0.0015918282981132,0.001591611207819,-0.0013559861058633,0.0013565834319697,-0.0013565752893964,0.0013560461750948,-0.0015224925893944,0.0015230332949619,-0.0015230825524391,0.0015223937422929,6.1835887210507e-06,-5.5670485426424e-06,-0.0010095943635094,0.0010101973425316,4.2730584826435e-08,5.7987379576676e-07,-0.0010637730710782,0.0010681013084482,-0.0010635643811759,0.001068273431305,-0.0010676872282661,0.0010641811613619,-0.0010675103885095,0.00106434596847,-0.001129599730996,0.0011188334291272,-0.0011180163629865,0.0011303608935298,0.74747646819914,1473840,32975,0.0063183264345943,0.006318366801728,0.0042012726741138,37.329965826946,0.00021383972661557,0.00021383972661557,0.00021383972661557,1515986.4155877,0.016980726040823
35942400,0.99999880177065,0.016737677961273,0.0059113125715091,0.0059113417995892,0.0049150235901745,-0.0015220624570473,0.0015222452955381,-5.7826559452714e-06,5.9530284598455e-06,-1.7024616767606e-07,3.9047193046204e-07,-0.0015943321613459,0.0015904388386247,-0.0015904536293951,0.0015943096332674,-0.0015941956238108,0.0015906014168005,-0.0015902468413654,0.0015945396706009,-0.0013628742142277,0.0013516249573161,-0.0013512771606824,0.0013631959368415,3.6805577451943e-07,-1.8575026046413e-07,3.9878745140498e-07,-1.5294510892091e-07,-0.0015220593063021,0.0015222732164094,-0.0015921307688972,0.0015926946802464,-0.0015922846183109,0.0015925181000096,-0.001592268285072,0.001592508551285,-0.0015924889400243,0.0015923031237056,-0.0013568926416437,0.0013575340410685,-0.0013574902829228,0.0013569851382764,-0.0015234588680462,0.0015240318590235,-0.0015240484289423,0.0015233909981417,6.1740704831017e-06,-5.593584112642e-06,-0.0010100501293394,0.0010106176905771,2.0546931532228e-08,5.6719109656716e-07,-0.0010643951404782,0.0010686906567062,-0.001064182579257,0.0010688656112447,-0.0010683149536017,0.0010647649141807,-0.0010681358374141,0.0010649327143595,-0.0011301147201226,0.0011192984563187,-0.0011185126691853,0.0011308413348003,0.7532802073654,1473840,32975,0.0063217375605896,0.0063217885801419,0.0042030962576029,37.606452432652,0.00021605161946121,0.00021605161946121,0.00021605161946121,1512145.0447199,0.016989530981013
36028800,0.99999887197994,0.01673767911634,0.0059113129809679,0.0059113422090496,0.0049150239263221,-0.0015228845764507,0.0015230654147946,-5.790325720874e-06,5.9587298999167e-06,-1.7210521122105e-07,3.9033613883656e-07,-0.0015950020562043,0.0015911007875495,-0.0015911182396795,0.0015949766078237,-0.0015948639306692,0.0015912647460567,-0.0015909118494495,0.0015952068118974,-0.001363807714213,0.0013525456481809,-0.0013521986689486,0.001364127855446,3.658426980775e-07,-1.8950026939361e-07,4.0109807215316e-07,-1.6210142298187e-07,-0.0015228813835659,0.0015230885623013,-0.001592794859518,0.0015933560281393,-0.0015929525230516,0.0015931755489899,-0.0015929337550756,0.0015931698249624,-0.0015931575559144,0.0015929610691839,-0.001357816758384,0.0013584609159344,-0.0013584247495384,0.0013579013286517,-0.0015244327054932,0.0015249966826759,-0.0015250220866599,0.0015243546722972,6.1643955203292e-06,-5.6171428654701e-06,-0.0010104828103464,0.001011017351488,-1.7786458599428e-09,5.5634221619471e-07,-0.0010650192286153,0.0010692827618834,-0.0010648033003372,0.0010694618493064,-0.0010689439860233,0.0010653525298958,-0.0010687607932652,0.0010655243229959,-0.0011305921003161,0.0011197339590828,-0.0011189766348208,0.0011312897706176,0.75863260091886,1473840,32975,0.0063251354799005,0.0063251765284839,0.0042048292164728,37.882937235351,0.00021826349788281,0.00021826349788281,0.00021826349788281,1508276.6872132,0.016998196098305
36115200,0.99999893846479,0.016737680204918,0.005911313366988,0.0059113425950702,0.0049150242428603,-0.0015232947224731,0.0015234736979787,-5.7926049220874e-06,5.9599531850814e-06,-1.7327957562114e-07,3.8870690244417e-07,-0.0015952905840074,0.0015913844062004,-0.0015914041423859,0.0015952628880495,-0.0015951494301329,0.0015915500862816,-0.001591200155272,0.0015954921285038,-0.0013643252538461,0.0013530647044674,-0.00135271878646,0.0013646461353937,3.5411119724381e-07,-2.010169724093e-07,3.8445761862362e-07,-1.6996630648374e-07,-0.0015233009273972,0.0015234839623197,-0.0015930915629691,0.0015936268353314,-0.0015932470510762,0.0015934473816836,-0.0015932326530045,0.0015934402655953,-0.0015934519046975,0.0015932356096203,-0.0013583532818841,0.001358962762612,-0.0013589486081384,0.0013584118343853,-0.0015249388819206,0.0015254797604467,-0.0015255234801447,0.0015248411278698,6.2040387944673e-06,-5.5813966164791e-06,-0.0010105416186074,0.0010111507860813,4.0036133868769e-08,5.9036240491806e-07,-0.0010652780263812,0.0010696183116956,-0.0010650665185103,0.0010697958738065,-0.0010692037757079,0.0010656869743738,-0.0010690213229076,0.0010658561818079,-0.0011306353945452,0.001119847819499,-0.0011190196727044,0.0011314076668085,0.75497882875158,1473840,32975,0.0063268280536171,0.0063268618836657,0.0042052324739301,37.994753568572,0.00021915802854858,0.00021915802854858,0.00021915802854858,1504888.6703441,0.017002042778034
36201600,0.99999900060578,0.016737681220639,0.0059113137272071,0.0059113429552892,0.0049150245381429,-0.0015228599190321,0.0015230368000557,-5.7898597860658e-06,5.9551149219183e-06,-1.7087631192673e-07,3.8413897090355e-07,-0.0015949844807926,0.0015910810576185,-0.001591100490946,0.001594957015627,-0.0015948455745171,0.0015912444604626,-0.0015908988594233,0.0015951838503804,-0.0013637646858834,0.001352507291498,-0.0013521658887168,0.0013640810589339,3.5270378457172e-07,-1.9544152761984e-07,3.7868582106149e-07,-1.6014435836037e-07,-0.0015228630453713,0.0015230501506822,-0.0015927885809167,0.001593320456521,-0.0015929389877077,0.001593146161844,-0.001592927404484,0.0015931361365607,-0.0015931414992846,0.0015929367744669,-0.0013577986547373,0.0013583990399044,-0.0013583787445039,0.0013578636725724,-0.0015243954764959,0.0015249386570406,-0.0015249730078547,0.0015243072389551,6.1984438655403e-06,-5.5794051875516e-06,-0.0010101790457774,0.0010107845722456,4.5948654441206e-08,5.8070872404686e-07,-0.0010648267369814,0.0010691660445559,-0.0010646204088394,0.0010693384160182,-0.0010687499192308,0.001065237217374,-0.0010685726531604,0.0010654012730047,-0.0011302628897748,0.0011194740302129,-0.001118654646587,0.001131026183354,0.75364865208071,1473840,32975,0.0063250239890436,0.0063250578357712,0.0042037178749299,37.86483719807,0.00021811869758456,0.00021811869758456,0.00021811869758456,1506844.3483754,0.016996832038983
36288000,0.99999905866542,0.016737682167834,0.005911314063143,0.0059113432912251,0.0049150248134655,-0.0015225268464626,0.0015227028268988,-5.7861507164615e-06,5.950495812522e-06,-1.7078170552489e-07,3.8317292075091e-07,-0.001594693556568,0.0015907923434753,-0.0015908123516612,0.0015946655372023,-0.0015945550041382,0.00159095537392,-0.0015906110477935,0.0015948920344089,-0.0013633786422369,0.0013521281326955,-0.0013517880279104,0.0013636938350468,3.5225825184668e-07,-1.948272648962e-07,3.7390550438573e-07,-1.5521408792127e-07,-0.0015225294449659,0.0015227167134667,-0.0015925004374456,0.0015930288883898,-0.0015926476178138,0.0015928578636561,-0.0015926388809958,0.0015928449402329,-0.0015928498041902,0.0015926487895821,-0.0013574206591215,0.0013580121059223,-0.0013579912955346,0.001357486107679,-0.0015240302086514,0.0015245758753926,-0.0015246067450218,0.001523945310078,6.1922162357723e-06,-5.5772769994505e-06,-0.0010098484648956,0.0010104499412431,4.8758806283114e-08,5.7381741516635e-07,-0.0010644645143016,0.0010688002792674,-0.0010642614298252,0.001068969391918,-0.0010683849506322,0.001064874212869,-0.0010682109010683,0.0010650350409828,-0.0011299380817142,0.0011191500725311,-0.001118338047949,0.0011306940671108,0.75224739219535,1473840,32975,0.0063236432190227,0.0063236770827755,0.004202337223501,37.720078173416,0.00021696062538733,0.00021696062538733,0.00021696062538733,1506766.2611591,0.016992619155266
36374400,0.99999911293274,0.016737683051248,0.0059113143764787,0.0059113436045608,0.0049150250702081,-0.0015221983059095,0.0015223736269518,-5.7824179007769e-06,5.9461249987971e-06,-1.7005342157408e-07,3.8176094994341e-07,-0.0015944030723437,0.0015905046180817,-0.0015905245909871,0.0015943750806141,-0.0015942652441716,0.0015906668913162,-0.0015903239695438,0.0015946009268316,-0.0013629998315135,0.0013517558220156,-0.0013514169424072,0.0013633136884632,3.5136910178561e-07,-1.9357090776214e-07,3.6858524180613e-07,-1.4945314001246e-07,-0.0015222003616946,0.001522388039252,-0.0015922132276287,0.0015927376805313,-0.0015923567559163,0.0015925703911382,-0.0015923509755238,0.001592554515973,-0.0015925582663765,0.0015923620327345,-0.0013570498650929,0.0013576316946839,-0.0013576097252414,0.0013571166328674,-0.00152367466915,0.001524222332988,-0.001524249304282,0.001523593815416,6.1867749255508e-06,-5.5745843696649e-06,-0.0010095243635476,0.0010101230656305,5.2865061691359e-08,5.6685528078551e-07,-0.0010641059180149,0.0010684398666362,-0.0010639065118641,0.0010686053318695,-0.0010680236350102,0.0010645165518445,-0.0010678532743263,0.0010646736778802,-0.0011296245484148,0.0011188380151276,-0.0011180324639464,0.0011303742623595,0.7506332431215,1473840,32975,0.0063222817526316,0.0063223155815353,0.0042009861652189,37.573923347244,0.00021579138677795,0.00021579138677795,0.00021579138677795,1506632.686005,0.016988475609991
36460800,0.99999916367852,0.016737683875377,0.0059113146688081,0.0059113438968902,0.0049150253096782,-0.0015218670187375,0.0015220411812583,-5.7792479783283e-06,5.941799211084e-06,-1.6906001953495e-07,3.7958736251603e-07,-0.0015941123933793,0.0015902163338136,-0.0015902363899476,0.0015940842885053,-0.0015939756039597,0.0015903775530115,-0.0015900368171592,0.0015943090748014,-0.0013626162652597,0.0013513773939799,-0.0013510407338084,0.0013629278896364,3.5030853318841e-07,-1.914637159617e-07,3.644151622725e-07,-1.4426135687015e-07,-0.0015218679821786,0.0015220566836234,-0.001591925290692,0.0015924466101243,-0.0015920657470048,0.0015922824490739,-0.0015920619900022,0.0015922644912247,-0.0015922662137633,0.0015920751465358,-0.0013566723826894,0.0013572470897367,-0.0013572231303166,0.0013567412872863,-0.0015233153257489,0.0015238640182417,-0.0015238868574418,0.0015232386733823,6.1817102243082e-06,-5.5721338227268e-06,-0.0010092044311081,0.0010098005071474,5.6197058992658e-08,5.6083632802436e-07,-0.0010637455266463,0.0010680774749786,-0.0010635492312124,0.0010682398240821,-0.0010676607391889,0.0010641566610921,-0.0010674934920886,0.0010643106854326,-0.001129317293265,0.0011185323993923,-0.0011177325749823,0.0011300612499715,0.74886371833396,1473840,32975,0.006320907940409,0.0063209417650199,0.0041996526150822,37.427627872291,0.00021462102297832,0.00021462102297832,0.00021462102297832,1506595.6568635,0.016984324779494
36547200,0.99999921115303,0.016737684634647,0.0059113149383455,0.0059113441664275,0.0049150255298736,-0.0015215334680214,0.001521706480216,-5.776214192197e-06,5.9376172854551e-06,-1.6839945204251e-07,3.7776588090116e-07,-0.0015938217457024,0.0015899277635542,-0.0015899481285398,0.0015937933100921,-0.0015936857653451,0.0015900881559497,-0.0015897493763072,0.0015940172532142,-0.0013622279082502,0.0013509941474448,-0.0013506594876778,0.0013625375557499,3.4974626379154e-07,-1.8954618366864e-07,3.609057000863e-07,-1.3941732475571e-07,-0.0015215331952825,0.0015217232292719,-0.001591636806489,0.0015921558688716,-0.0015917745210256,0.0015919944903044,-0.001591772685471,0.0015919745575747,-0.0015919741674898,0.0015917880135191,-0.0013562896044452,0.0013568582613644,-0.0013568321933883,0.001356360686786,-0.0015229524555141,0.0015235028278739,-0.0015235215354598,0.0015228799576082,6.1768714517515e-06,-5.5697384029518e-06,-0.0010088879208965,0.0010094815563043,5.9117009746049e-08,5.5542695621192e-07,-0.0010633838685423,0.0010677137568794,-0.0010631903377162,0.0010678733244853,-0.0010672966717484,0.0010637953443014,-0.001067132194808,0.0010639466025868,-0.0011290155333736,0.0011182325012779,-0.0011174379050497,0.0011297542372898,0.73751417241864,1473840,32975,0.0063195248185597,0.006319558665338,0.0041983335751467,37.281316820001,0.00021345053456,0.00021345053456,0.00021345053456,1506635.0870901,0.016980169795151
36633600,0.99999925558742,0.016737685341519,0.0059113151893353,0.0059113444174174,0.004915025734766,-0.0015207621494272,0.0015209282953646,-5.7752315468828e-06,5.9298355568019e-06,-1.6445792789378e-07,3.6612311746786e-07,-0.0015933527126461,0.0015894586448288,-0.0015894809625995,0.0015933231310354,-0.0015932190679282,0.0015896146183333,-0.0015892892937262,0.0015935404525254,-0.0013611907316842,0.0013499581080346,-0.0013496379296888,0.001361490453271,3.4392342688744e-07,-1.8001334919304e-07,3.5364689817766e-07,-1.2984267415198e-07,-0.0015207566505618,0.0015209491972665,-0.0015911718797334,0.0015916841618633,-0.0015913056434761,0.0015915266444687,-0.0015913045100017,0.0015915075602731,-0.0015914991937621,0.0015913271876458,-0.0013552595581621,0.0013558175130824,-0.0013557817431612,0.0013553361967106,-0.0015219001698441,0.0015224416598367,-0.0015224502413874,0.0015218368808267,6.1715946415874e-06,-5.5668628650023e-06,-0.0010085125259065,0.0010091038518916,6.6374650048061e-08,5.4665388956394e-07,-0.001062717361744,0.0010670466743618,-0.0010625304439106,0.0010672020211334,-0.0010666274065433,0.0010631310005792,-0.0010664665808081,0.0010632771186235,-0.0011286306644779,0.0011178488224836,-0.0011170616408878,0.0011293611558903,0.73361145543759,1473840,32975,0.0063163194859126,0.0063163511157042,0.0041967627505142,37.135005464746,0.00021228004371797,0.00021228004371797,0.00021228004371797,1514227.8500391,0.016972047893329
36720000,0.9999992971952,0.016737686007133,0.005911315425576,0.005911344653658,0.004915025927899,-0.0015203496995614,0.0015205139618299,-5.7722368824667e-06,5.9249351966998e-06,-1.6221248493781e-07,3.626632277621e-07,-0.0015930731013406,0.0015891829672531,-0.0015892049860117,0.0015930429669933,-0.0015929440655483,0.0015893362549319,-0.0015890132494312,0.0015932598055324,-0.0013605989718771,0.0013493658592814,-0.0013490469428382,0.0013608928609954,3.4248944913087e-07,-1.7550595375182e-07,3.4955390378112e-07,-1.214161158255e-07,-0.0015203417077685,0.0015205384055519,-0.0015908950131933,0.0015914039478184,-0.0015910231108449,0.0015912523616434,-0.0015910239437799,0.0015912297666976,-0.0015912157746424,0.0015910530421895,-0.0013546683924369,0.0013552219764595,-0.0013551823532216,0.0013547534386608,-0.0015214290169314,0.001521974880267,-0.0015219772940506,0.0015213732430843,6.1648817630369e-06,-5.5650084834166e-06,-0.0010082111165062,0.00100879746101,7.0045450862616e-08,5.3702787100664e-07,-0.0010622328459342,0.001066559644917,-0.0010620490936138,0.0010667094704944,-0.0010661400461774,0.0010626468296903,-0.0010659853294994,0.0010627883367062,-0.001128413062178,0.0011176294345758,-0.0011168519835294,0.0011291348368005,0.73780776568609,1473840,32975,0.0063146090370296,0.0063146428344064,0.0041954999798089,36.988694349379,0.00021110955479503,0.00021110955479503,0.00021110955479503,1515907.0047551,0.016967286140191
36806400,0.99999933617371,0.016737686622045,0.0059113156439759,0.005911344872058,0.0049150261060109,-0.0015203491104223,0.0015205168424133,-5.7690608881205e-06,5.9251940423177e-06,-1.6356606453471e-07,3.6756881645023e-07,-0.0015929001263904,0.0015890123662782,-0.0015890330181367,0.0015928713906255,-0.0015927690601199,0.0015891677098021,-0.0015888392002871,0.0015930903350199,-0.0013607435045371,0.0013495186728568,-0.001349194242848,0.0013610429446601,3.4458142287263e-07,-1.7967666253176e-07,3.5025391821719e-07,-1.2414345209455e-07,-0.0015203438793901,0.0015205385418053,-0.0015907226507241,0.00159123274585,-0.001590851836996,0.0015910800364743,-0.0015908536118386,0.0015910564897607,-0.0015910465768485,0.0015908785783043,-0.0013548175609069,0.0013553705275502,-0.0013553348782815,0.0013548983680375,-0.0015215849740936,0.0015221339814334,-0.0015221394291369,0.0015215258146784,6.1629213791361e-06,-5.5640493311282e-06,-0.0010079674099393,0.0010085527884269,6.7875343585374e-08,5.3828222244274e-07,-0.0010621491760589,0.0010664729195367,-0.0010619642937462,0.0010666238794635,-0.0010660554286741,0.0010625610602528,-0.0010658995617819,0.0010627037029621,-0.0011281845530846,0.0011174038787162,-0.0011166262293746,0.0011289064630206,0.72764538016054,1473840,32975,0.0063146125607013,0.0063146463919695,0.0041944913883707,36.842382874657,0.00020993906299725,0.00020993906299725,0.00020993906299725,1510488.3156247,0.016966268941178
36892800,0.99999937293594,0.016737687205528,0.0059113158511243,0.0059113450792064,0.004915026275197,-0.0015198381855439,0.0015199982346022,-5.7709852948062e-06,5.9194642496223e-06,-1.6167628982032e-07,3.5788592964389e-07,-0.0015927093687939,0.0015888190252132,-0.0015888434629921,0.0015926767732698,-0.0015925820635769,0.0015889705258699,-0.0015886534818685,0.001592891843247,-0.001359909246894,0.001348676713261,-0.0013483637087849,0.0013601970950325,3.4078045482454e-07,-1.7191256287174e-07,3.4163335787857e-07,-1.1164742416064e-07,-0.0015198271691742,0.0015200257154263,-0.0015905340075737,0.0015910371702306,-0.0015906563209985,0.001590891492587,-0.0015906611994504,0.0015908647659778,-0.0015908472355012,0.0015906939584503,-0.0013539856878045,0.0013545255296066,-0.0013544824410837,0.0013540745007474,-0.0015208215188622,0.0015213699436442,-0.0015213646067005,0.001520773533762,6.1593971614478e-06,-5.5637419960848e-06,-0.0010078074271763,0.0010083895140509,7.6672964441802e-08,5.2600712074191e-07,-0.0010616458566488,0.0010659720349245,-0.0010614679802288,0.0010661159928564,-0.0010655508029759,0.0010620614865329,-0.0010654019625479,0.0010621971166446,-0.0011280827377664,0.0011172956165857,-0.0011165282501038,0.0011287944493945,0.73199885118927,1473840,32975,0.006312483695402,0.0063125175192024,0.0041938135529354,36.814515183612,0.0002097161214689,0.0002097161214689,0.0002097161214689,1518173.0385372,0.016961247225181
36979200,0.99999940790599,0.016737687764045,0.0059113160493214,0.0059113452774034,0.0049150264373199,-0.0015204201420994,0.0015205627015038,-5.7824051079198e-06,5.9133278574696e-06,-1.7301172589362e-07,3.5212359145952e-07,-0.0015931271183906,0.0015892166300801,-0.0015892597015337,0.0015930746371967,-0.001592999664962,0.0015893693025962,-0.0015890667536826,0.0015932922040577,-0.0013606073689436,0.0013493514618516,-0.0013490529651382,0.0013608786377305,3.4564820024585e-07,-1.7260092665593e-07,3.4913130205473e-07,-1.1419696833061e-07,-0.0015203982988352,0.0015206019426506,-0.0015909363114483,0.0015914493814722,-0.0015910615598411,0.0015913012495699,-0.0015910639202798,0.0015912750709771,-0.0015912543431273,0.0015911006486237,-0.0013546642777669,0.0013552178577593,-0.0013551734160549,0.0013547576123339,-0.0015215732789987,0.0015221291622942,-0.0015221242684438,0.001521526572814,6.1592804865643e-06,-5.5685936704374e-06,-0.0010080211511906,0.0010085982759776,6.9044851901286e-08,5.278398234903e-07,-0.0010620061101022,0.0010663266065338,-0.0010618243810087,0.0010664731225825,-0.001065912720582,0.0010624143653821,-0.0010657618275085,0.0010625531731438,-0.0011283579345645,0.0011175634681804,-0.0011167985027975,0.0011290675189215,0.73667737590831,1473840,32975,0.0063148556075697,0.0063148913613876,0.0041946958760412,36.946347350028,0.00021077077880022,0.00021077077880022,0.00021077077880022,1513337.6764697,0.016966972132388
37065600,0.99999944117455,0.016737688299145,0.0059113162391307,0.0059113454672128,0.0049150265928019,-0.0015209981102318,0.0015211383809889,-5.7865759034781e-06,5.9151502609404e-06,-1.7594508406798e-07,3.524025987132e-07,-0.0015935394039181,0.0015896243093826,-0.0015896701058424,0.0015934840301359,-0.0015934116825559,0.0015897777990821,-0.0015894764072419,0.0015937030801795,-0.001361309120736,0.0013500450927292,-0.0013497480462856,0.0013615789997036,3.5386857475222e-07,-1.675288537456e-07,3.62419288791e-07,-1.1344817955091e-07,-0.0015209682165772,0.0015211856473818,-0.0015913364379113,0.0015918682924623,-0.0015914657200766,0.0015917166331628,-0.0015914650427294,0.0015916935117104,-0.0015916599864724,0.001591514666122,-0.0013553491408862,0.0013559283772026,-0.0013558713394876,0.001355455528916,-0.001522310444053,0.001522879506309,-0.0015228666644801,0.0015222729030588,6.1624362540211e-06,-5.5715738148449e-06,-0.0010082447304844,0.001008822045519,6.2798007868907e-08,5.3401976693895e-07,-0.00106240120774,0.001066720141963,-0.0010622151521611,0.0010668704248507,-0.0010663098595994,0.0010628057193365,-0.0010661551059161,0.0010629485841013,-0.0011286256617394,0.0011178289541506,-0.0011170595443376,0.0011293390612834,0.74179144874524,1473840,32975,0.0063172423761954,0.0063172780768229,0.0041956296559292,37.087964952252,0.00021190371961801,0.00021190371961801,0.00021190371961801,1508806.8257101,0.016972777669303
37152000,0.99999947281153,0.01673768881237,0.0059113164210961,0.0059113456491781,0.004915026742096,-0.0015215601041295,0.0015217035018499,-5.7871040564408e-06,5.9188436366234e-06,-1.7666248368198e-07,3.5657810168021e-07,-0.0015939416215765,0.0015900262009016,-0.0015900709423326,0.0015938875994038,-0.0015938126118976,0.0015901819911527,-0.0015898759085603,0.0015941084617074,-0.0013619926540144,0.0013507296093403,-0.0013504270845026,0.0013622667642242,3.6365572839213e-07,-1.6249727614949e-07,3.7506448335125e-07,-1.1019231371168e-07,-0.0015215234191415,0.0015217564044355,-0.001591728148961,0.0015922802008651,-0.0015918600989038,0.0015921254053985,-0.0015918578587657,0.0015921038802643,-0.0015920558337063,0.0015919216033982,-0.0013560202179746,0.0013566238035083,-0.0013565515002994,0.0013561406042724,-0.001523021661856,0.0015236076870708,-0.0015235823372337,0.0015229959304546,6.1630102322022e-06,-5.5752422859483e-06,-0.0010084659273227,0.001009040098996,5.6766911197182e-08,5.3738853593543e-07,-0.0010627970675781,0.001067110981982,-0.0010626076052362,0.0010672642594866,-0.0010667074181915,0.0010631950033454,-0.0010665491924588,0.0010633411328643,-0.0011288807451224,0.0011180803195013,-0.0011173107180049,0.0011295944630557,0.74806144027998,1473840,32975,0.006319574167113,0.0063196074757178,0.004196546534056,37.230498747018,0.00021304398997614,0.00021304398997614,0.00021304398997614,1504444.2598734,0.016978451883504
37238400,0.99999950288323,0.016737689305566,0.005911316595866,0.0059113458239479,0.0049150268857524,-0.0015221018220031,0.0015222734773134,-5.7750940065859e-06,5.9351223804313e-06,-1.6659464752008e-07,3.7461587235707e-07,-0.001594305762998,0.0015904133013895,-0.0015904334194454,0.0015942776066232,-0.0015941714280735,0.0015905719610599,-0.0015902362338654,0.0015944999666627,-0.0013626894438897,0.0013514559956125,-0.0013511242617829,0.0013629961111083,3.4763687682188e-07,-1.8669970710781e-07,3.5718366997033e-07,-1.3489300885156e-07,-0.001522100483203,0.0015222912788398,-0.0015921233098506,0.0015926386766568,-0.001592258258902,0.0015924801297235,-0.0015922575272342,0.0015924591377013,-0.001592456342125,0.001592275250835,-0.0013567539111021,0.0013573173603624,-0.0013572887564646,0.0013568276031519,-0.00152373685007,0.0015242861696046,-0.0015243014130821,0.0015236676240574,6.1722572346356e-06,-5.5707519265018e-06,-0.0010086550930468,0.0010092431217098,6.0411580060109e-08,5.484566232851e-07,-0.0010632164244458,0.0010675423255426,-0.0010630257077765,0.0010676991521232,-0.0010671280551832,0.0010636251109392,-0.0010669663222261,0.0010637735995039,-0.0011290676321413,0.0011182796814332,-0.0011174934402721,0.001129798124705,0.75619177624307,1473840,32975,0.0063218736922461,0.0063219075108722,0.004197365829485,37.373122197404,0.00021418497757923,0.00021418497757923,0.00021418497757923,1499938.8786106,0.016983964331906
37324800,0.99999953145385,0.016737689771229,0.0059113167609476,0.0059113459890295,0.0049150270212523,-0.0015226488511447,0.0015228313142734,-5.7724789584133e-06,5.9434249241576e-06,-1.6301793392258e-07,3.8213634871506e-07,-0.0015946920001746,0.0015908074488557,-0.0015908180209088,0.0015946731487659,-0.0015945572843768,0.0015909670415256,-0.0015906192446171,0.0015948973185002,-0.0013633649797902,0.0013521365834539,-0.0013517923193256,0.0013636832548993,3.5773078756604e-07,-1.8046208250214e-07,3.7218217373413e-07,-1.3313479644122e-07,-0.0015226445331759,0.0015228519416761,-0.0015925020741131,0.0015930391678196,-0.0015926408517643,0.0015928767971999,-0.0015926370771375,0.0015928587351244,-0.0015928406562725,0.0015926701397668,-0.0013574171758833,0.0013580095002161,-0.001357966043533,0.0013575067350656,-0.0015244262721311,0.0015249923215477,-0.001524996291108,0.0015243687662762,6.1763115540511e-06,-5.5722903574182e-06,-0.0010088126042146,0.001009403280977,5.5085994123633e-08,5.5631544021523e-07,-0.0010635964969668,0.0010679227552326,-0.0010634010497937,0.0010680837325587,-0.0010675100407884,0.0010640036192687,-0.0010673442909564,0.0010641565581449,-0.0011292312229459,0.0011184444959024,-0.001117651176215,0.0011299689360788,0.75145807721164,1473840,32975,0.006324158852809,0.0063241923523762,0.0041980311441811,37.515764417712,0.0002153261153417,0.0002153261153417,0.0002153261153417,1495069.1860407,0.016989290306313
37411200,0.99999955858563,0.016737690208505,0.0059113169160616,0.0059113461441434,0.0049150271483003,-0.0015226971007918,0.0015228693411753,-5.7775893461173e-06,5.9382225621106e-06,-1.6669119004254e-07,3.7526046927893e-07,-0.0015949027259371,0.0015910087317456,-0.0015910284751717,0.0015948749160442,-0.0015947681328399,0.001591167689897,-0.0015908310968678,0.0015950974775348,-0.0013632557027309,0.0013520177575669,-0.0013516851912931,0.0013635631697534,3.4833061474291e-07,-1.8674930032448e-07,3.5978248311575e-07,-1.3692118181675e-07,-0.0015226957511335,0.0015228871625682,-0.0015927183373483,0.0015932361784148,-0.0015928548711008,0.0015930760277796,-0.0015928528468867,0.0015930563107449,-0.0015930531448253,0.0015928709591236,-0.0013573156021902,0.0013578835569367,-0.001357854705271,0.0013573895535229,-0.0015243419463093,0.0015248908110207,-0.0015249069812213,0.0015242719854782,6.1769465995467e-06,-5.5716989764696e-06,-0.0010088610165282,0.001009452746616,5.9951867641125e-08,5.5264223295334e-07,-0.001063549582761,0.001067879455644,-0.0010633572741,0.0010680378406296,-0.001067463060702,0.0010639603770351,-0.0010672998046937,0.0010641104183835,-0.0011292792620913,0.0011184911144052,-0.0011176996094836,0.0011300149587482,0.74304626776731,1473840,32975,0.006324337899624,0.0063243717367239,0.0041982312578407,37.658406895943,0.00021646725516754,0.00021646725516754,0.00021646725516754,1498800.7827617,0.016989857044046
37497600,0.9999995843389,0.0167376906211,0.0059113170624643,0.0059113462905461,0.0049150272680896,-0.0015226349320623,0.0015228024098958,-5.7799828066006e-06,5.9358436306854e-06,-1.6576114330441e-07,3.6903058704148e-07,-0.0015950676696402,0.0015911706030613,-0.0015911924574793,0.0015950372218982,-0.0015949339383394,0.0015913274632314,-0.0015909975822295,0.0015952566620483,-0.0013629885050347,0.001351744777022,-0.0013514196809474,0.0013632878374829,3.3823544048726e-07,-1.8984103730139e-07,3.4852042399946e-07,-1.3850402314195e-07,-0.0015226377614186,0.0015228157799527,-0.0015928910914055,0.0015933911562667,-0.0015930259536715,0.0015932333086731,-0.0015930231593647,0.0015932120431687,-0.0015932207547832,0.0015930306040311,-0.0013570535839845,0.0013576008238583,-0.0013575832155957,0.0013571183273386,-0.0015240863225675,0.0015246162475522,-0.0015246441890415,0.0015240073362191,6.1771976200791e-06,-5.5720094020526e-06,-0.0010089491488926,0.0010095400061201,6.4046906697552e-08,5.47350679032e-07,-0.0010634548999297,0.0010677868331048,-0.0010632660650991,0.0010679424547754,-0.0010673686485757,0.0010638674032981,-0.0010672073883706,0.0010640142730476,-0.0011293755781135,0.0011185840658078,-0.0011177947122543,0.0011301074381458,0.73870642525475,1473840,32975,0.0063240720134194,0.0063241052903593,0.0041985899153665,37.8010472113,0.0002176083776904,0.0002176083776904,0.0002176083776904,1504839.7025835,0.01698967843882
37584000,0.99999960877213,0.016737691010398,0.005911317200638,0.0059113464287199,0.0049150273810404,-0.0015227684122835,0.001522936177026,-5.7806551915332e-06,5.9368359264983e-06,-1.636617870376e-07,3.6722218141808e-07,-0.0015953337851766,0.0015914380799154,-0.0015914582280999,0.0015953048180697,-0.0015952018436106,0.0015915935724833,-0.0015912642662565,0.0015955231972032,-0.0013629691433321,0.001351721967049,-0.0013513975241797,0.0013632671810287,3.2119089429624e-07,-2.0310919017451e-07,3.3154973181034e-07,-1.5186657182637e-07,-0.0015227865093844,0.001522934322487,-0.0015931740190356,0.0015936412490494,-0.0015933074253364,0.0015934848225566,-0.0015933045365412,0.0015934635495118,-0.0015935010964049,0.0015932831546603,-0.0013570483314144,0.0013575630856851,-0.0013575749107995,0.001357084519904,-0.0015241565645692,0.0015246536403762,-0.0015247113429333,0.001524048625171,6.1799542898273e-06,-5.5707520641443e-06,-0.0010090943571301,0.0010096892476111,6.7825398781213e-08,5.4741196556492e-07,-0.0010634713165851,0.0010678091197294,-0.0010632835870776,0.0010679635160775,-0.0010673854764399,0.0010638892976603,-0.0010672259694648,0.0010640350427749,-0.0011295793715714,0.0011187888177409,-0.0011179969055067,0.0011303138448211,0.73474886585842,1473840,32975,0.0063246260401295,0.0063246594057701,0.0041991991440098,37.943687152618,0.00021874949722095,0.00021874949722095,0.00021874949722095,1507814.5500163,0.016991424060548
37670400,0.99999963181227,0.016737691375443,0.0059113173302404,0.0059113465583222,0.0049150274868803,-0.0015227106814923,0.0015228757197531,-5.781484938131e-06,5.9349534362081e-06,-1.6403272527754e-07,3.6492947163165e-07,-0.0015953880787992,0.0015914904908707,-0.0015915128964264,0.0015953571610386,-0.00159525665478,0.0015916453546493,-0.0015913199117519,0.0015955748627645,-0.0013627824495579,0.001351533403586,-0.0013512124618441,0.0013630777314595,3.3601124943722e-07,-1.8625160624031e-07,3.448804262036e-07,-1.3374603617303e-07,-0.0015227117084988,0.0015228911326664,-0.0015932130921069,0.0015937095904228,-0.0015933445906734,0.001593554756609,-0.0015933434109428,0.0015935329197587,-0.0015935378884434,0.0015933539885353,-0.0013568480095972,0.0013573901169876,-0.0013573691804161,0.0013569153694759,-0.001524007719014,0.0015245364721273,-0.0015245598531966,0.0015239327143352,6.1781356589595e-06,-5.5714376930051e-06,-0.0010090781526762,0.0010096707333619,6.9085874702832e-08,5.4407802356764e-07,-0.001063348120985,0.0010676845226442,-0.0010631619771196,0.0010678374708692,-0.0010672617922127,0.0010637651815651,-0.001067103552543,0.001063909375581,-0.0011296065004833,0.0011188133208614,-0.0011180256300659,0.0011303373525717,0.73067330549178,1473840,32975,0.0063243821183785,0.0063244158927926,0.0041991254464151,37.979346768351,0.00021903477414681,0.00021903477414681,0.00021903477414681,1510160.0012975,0.016990852597692
37756800,0.99999965338531,0.016737691715282,0.005911317450927,0.0059113466790088,0.004915027585346,-0.0015223787529026,0.0015225481343184,-5.7760234576281e-06,5.9339321986555e-06,-1.6127884208173e-07,3.6641069209784e-07,-0.0015951706184098,0.001591279744717,-0.0015912978997076,0.0015951448428317,-0.0015950390357449,0.0015914343172077,-0.0015911058345666,0.0015953619435008,-0.001362320575803,0.0013510830576319,-0.0013507588728798,0.0013626215154204,3.3807006712018e-07,-1.8289166878044e-07,3.4431254888742e-07,-1.2888729519124e-07,-0.0015223791292029,0.001522563312578,-0.0015929974734067,0.0015934963844185,-0.0015931270102347,0.0015933430511536,-0.0015931284112359,0.0015933209242913,-0.0015933201732432,0.001593143612715,-0.0013563939964682,0.0013569349446126,-0.0013569080202102,0.001356464219529,-0.0015235947656579,0.0015241293676281,-0.0015241438648483,0.0015235265138236,6.1724919942505e-06,-5.5706024928281e-06,-0.0010088493643222,0.0010094376469695,6.9875733156728e-08,5.3955032383497e-07,-0.0010629990931016,0.001067330443012,-0.0010628151496344,0.0010674820091007,-0.0010669102443043,0.0010634134235189,-0.0010667536675774,0.0010635558890211,-0.0011294104701387,0.0011186174016826,-0.0011178369678081,0.0011301354274902,0.72651025588822,1473840,32975,0.0063230177212881,0.0063230496630679,0.0041981650154325,37.882283215288,0.00021825826572231,0.00021825826572231,0.00021825826572231,1512217.9781553,0.016987098005457
37843200,0.99999967358227,0.016737692032084,0.0059113175634507,0.0059113467915325,0.0049150276771007,-0.0015220220280622,0.0015221963714757,-5.7696778873119e-06,5.9326205907357e-06,-1.5798028980018e-07,3.6802108492059e-07,-0.0015949330103873,0.0015910502985227,-0.001591062953819,0.0015949128368207,-0.0015948021777753,0.001591204285095,-0.0015908713989678,0.0015951293519849,-0.0013618279363117,0.001350602368578,-0.0013502740724692,0.0013621337519087,3.3740158101576e-07,-1.8181224941567e-07,3.4122812354405e-07,-1.254817423123e-07,-0.0015220248392779,0.0015222094685201,-0.0015927652763823,0.0015932618845216,-0.0015928925288181,0.0015931107440753,-0.0015928955855001,0.0015930869560528,-0.0015930852025267,0.0015929118196312,-0.0013559106664239,0.0013564461904964,-0.0013564182907929,0.0013559816460176,-0.0015231591949703,0.0015236947510247,-0.0015237065510494,0.0015230936719537,6.166794706625e-06,-5.5685267039712e-06,-0.0010086119632181,0.0010091968307097,7.1535384330171e-08,5.3460065517162e-07,-0.0010626245165048,0.0010669522690495,-0.0010624426951289,0.0010671014428718,-0.0010665330870159,0.0010630377376439,-0.0010663789401789,0.0010631780199729,-0.0011292118000066,0.0011184203260009,-0.0011176461582117,0.001129930753158,0.72344192782285,1473840,32975,0.0063215520244914,0.0063215846983782,0.0041971705354197,37.777041718092,0.00021741633374473,0.00021741633374473,0.00021741633374473,1514350.5568575,0.016983105323887
37929600,0.99999969249655,0.016737692330728,0.0059113176694757,0.0059113468975575,0.0049150277636944,-0.0015217270187256,0.0015218919810546,-5.7707161958475e-06,5.9241145955734e-06,-1.6233117851913e-07,3.6348790433229e-07,-0.0015947299236888,0.0015908409520247,-0.0015908625740327,0.001594700163339,-0.0015946005738742,0.0015909945439158,-0.0015906705264412,0.001594917315702,-0.0013614067297736,0.001350176879468,-0.0013498569265662,0.0013617016052929,3.4281627986152e-07,-1.7612026997012e-07,3.4388906364725e-07,-1.1603377215251e-07,-0.0015217195207695,0.0015219159351863,-0.0015925541999484,0.0015930595135818,-0.0015926786796143,0.0015929116194594,-0.0015926834397434,0.0015928850114205,-0.0015928716567545,0.0015927119769961,-0.0013554834395955,0.0013560256068541,-0.0013559866504324,0.001355567951292,-0.0015228084120206,0.0015233586076937,-0.0015233576210996,0.0015227560102124,6.1620755576452e-06,-5.5655256964648e-06,-0.0010083820145175,0.0010089650182739,7.3855924183036e-08,5.2980607753215e-07,-0.0010622737118813,0.001066600085115,-0.0010620936432886,0.0010667462459291,-0.0010661801354986,0.001062688039053,-0.0010660290985749,0.0010628258863542,-0.0011290399169349,0.0011182515507783,-0.0011174810993742,0.0011297546997298,0.72823088197649,1473840,32975,0.0063203119597947,0.0063203457659934,0.0041962112334179,37.67103086617,0.00021656824692936,0.00021656824692936,0.00021656824692936,1515582.9914609,0.016979608049894
38016000,0.99999971021553,0.016737692611096,0.0059113177689936,0.0059113469970754,0.0049150278450265,-0.0015218402853762,0.0015220118646748,-5.7671432933227e-06,5.9269502640399e-06,-1.6144496019008e-07,3.6967720717949e-07,-0.0015946657818421,0.0015907827650222,-0.0015907994417424,0.0015946409494187,-0.0015945359095963,0.0015909376410068,-0.0015906052747102,0.0015948605175359,-0.001361652651044,0.0013504302720906,-0.0013501016822052,0.0013619562524832,3.4341090320531e-07,-1.8079573528224e-07,3.4605362816367e-07,-1.2276175225238e-07,-0.0015218381469124,0.0015220306420304,-0.0015924924164493,0.0015929977146863,-0.0015926187730858,0.0015928476536198,-0.0015926233295398,0.0015928225931244,-0.0015928141780908,0.0015926460060595,-0.0013557329743785,0.0013562780080167,-0.0013562452468789,0.0013558102447787,-0.0015231116922277,0.0015236616770211,-0.001523666360661,0.0015230513729001,6.1622474370496e-06,-5.564193008396e-06,-0.0010082057608945,0.0010087909055012,7.0655166261641e-08,5.3509565302763e-07,-0.0010622488015199,0.001066574363301,-0.0010620655359578,0.0010667232357025,-0.0010661547489374,0.0010626629225624,-0.0010660016703282,0.0010628036992668,-0.0011289013599494,0.0011181182599203,-0.0011173440683307,0.0011296206809281,0.72979385289717,1473840,32975,0.0063207933108922,0.0063208274925684,0.0041954897221171,37.564942601342,0.00021571954081074,0.00021571954081074,0.00021571954081074,1509700.798635,0.016979855184716
38102400,0.99999972682034,0.016737692874009,0.0059113178623082,0.00591134709039,0.0049150279213103,-0.0015217592069224,0.0015219281624146,-5.7664856323302e-06,5.9238428850007e-06,-1.6458313350454e-07,3.6985085990447e-07,-0.0015944978946456,0.0015906115463375,-0.001590632103795,0.0015944692746028,-0.0015943657403383,0.0015907679898273,-0.0015904371836423,0.0015946893313191,-0.0013616536381843,0.0013504349347828,-0.0013501082288421,0.0013619554523151,3.4507621524285e-07,-1.8248439504838e-07,3.4667988235577e-07,-1.2290724983299e-07,-0.0015217557368681,0.0015219480857804,-0.0015923225217842,0.0015928297966939,-0.0015924500994684,0.0015926787168921,-0.0015924545497056,0.0015926524396318,-0.0015926459403975,0.0015924761262255,-0.001355734879921,0.0013562797100252,-0.001356247513666,0.0013558121960776,-0.0015230899711023,0.0015236415845122,-0.0015236476584758,0.0015230300655751,6.1586641157978e-06,-5.5644340645772e-06,-0.0010079976973072,0.0010085784704575,6.7979444509574e-08,5.3357145591601e-07,-0.0010621406211633,0.0010664601012535,-0.0010619573617462,0.0010666094546949,-0.001066045596397,0.0010625495218064,-0.0010658913350013,0.0010626905797529,-0.0011286830546338,0.0011178999471105,-0.0011171285608089,0.001129398731639,0.73019942067232,1473840,32975,0.0063204515087127,0.0063204853088583,0.0041946193385146,37.458846364489,0.00021487077091591,0.00021487077091591,0.00021487077091591,1507029.5809118,0.016978275005633
38188800,0.99999974238626,0.016737693120603,0.0059113179498235,0.0059113471779053,0.0049150279928742,-0.0015216085557513,0.0015217780399882,-5.7638544073689e-06,5.9217060798551e-06,-1.6497771724822e-07,3.7078912712944e-07,-0.0015943222014429,0.0015904375283697,-0.0015904579938186,0.001594293674562,-0.0015941895661779,0.0015905944332946,-0.0015902626448354,0.0015945141421608,-0.00136151157526,0.0013502985469413,-0.0013499710007173,0.0013618143957143,3.4476356196881e-07,-1.8414286775911e-07,3.4499564355658e-07,-1.233441882802e-07,-0.0015216063858703,0.0015217967031565,-0.0015921486835723,0.0015926540156501,-0.0015922758862052,0.0015925033081497,-0.0015922811937206,0.0015924761993904,-0.001592472149758,0.0015923003127394,-0.0013555976455423,0.0013561385424642,-0.0013561089531184,0.0013556722895935,-0.0015229721383325,0.0015235234276973,-0.0015235308881453,0.0015229106500779,6.1582211961764e-06,-5.5601022953264e-06,-0.0010077707328682,0.0010083553943533,7.0539500380389e-08,5.3490529958556e-07,-0.0010619350213535,0.0010662571960152,-0.0010617521766272,0.0010664061397997,-0.0010658383824326,0.0010623482051365,-0.0010656845688832,0.0010624888563905,-0.0011284683689762,0.0011176933520831,-0.0011169185402435,0.001129187398144,0.73055192508871,1473840,32975,0.0063198285996615,0.0063198624829829,0.0041936867026376,37.352749327952,0.00021402199462361,0.00021402199462361,0.00021402199462361,1505494.2242329,0.016976059893461
38275200,0.99999975698315,0.016737693351985,0.0059113180319327,0.0059113472600145,0.0049150280600381,-0.00152145144868,0.0015216213807366,-5.7612679100264e-06,5.9195624979661e-06,-1.6534847584309e-07,3.7161497555323e-07,-0.0015941436323284,0.0015902605846188,-0.0015902809847481,0.001594115142123,-0.001594010594028,0.0015904178880128,-0.0015900852460906,0.0015943360073019,-0.0013613601099635,0.001350152560525,-0.0013498241544871,0.001361663742822,3.450671903409e-07,-1.8503736637888e-07,3.4403466536569e-07,-1.2297973863775e-07,-0.0015214497994959,0.0015216395258619,-0.0015919712330037,0.001592475948226,-0.0015920980229128,0.0015923256768868,-0.0015921041383416,0.0015922977245642,-0.0015922946728694,0.0015921222843278,-0.00135545005057,0.001355988637117,-0.0013559600541258,0.0013555237033958,-0.0015228431297077,0.0015233954314824,-0.0015234030240953,0.0015227814850933,6.1570873891037e-06,-5.5564950986996e-06,-0.0010075421389948,0.0010081292451436,7.2409114158736e-08,5.3546609367222e-07,-0.0010617256394344,0.0010660491004243,-0.0010615432327182,0.0010661976127153,-0.0010656274195763,0.0010621416916433,-0.0010654740445385,0.0010622819066898,-0.0011282510355685,0.001117482684443,-0.0011167058328014,0.0011289720775741,0.73097102203169,1473840,32975,0.0063191788075187,0.0063192126966177,0.0041927442165348,37.246652227672,0.00021317321782137,0.00021317321782137,0.00021317321782137,1504047.94966,0.016973779984623
38361600,0.99999977071693,0.016737693571121,0.0059113181096621,0.0059113473377439,0.0049150281237151,-0.0015214071124049,0.0015215776893848,-5.7597700845283e-06,5.9185469247092e-06,-1.6542209653327e-07,3.7243552046631e-07,-0.0015940786837233,0.0015901969467602,-0.0015902169884162,0.0015940505824387,-0.001593945361687,0.0015903544569381,-0.0015900209518051,0.0015942718098158,-0.0013613193795418,0.0013501151099784,-0.0013497858572765,0.0013616241324981,3.4530538393229e-07,-1.8567305427726e-07,3.4374096073672e-07,-1.2343269151369e-07,-0.001521405990729,0.0015215952267162,-0.0015919069394402,0.0015924114789753,-0.0015920336637058,0.0015922611427832,-0.0015920402783208,0.0015922331369016,-0.0015922306153049,0.0015920575496174,-0.0013554116456204,0.001355949285858,-0.0013559215872664,0.0013554839448926,-0.001522829562103,0.0015233823858023,-0.0015233899912072,0.0015227672366583,6.1565272205824e-06,-5.5544749118864e-06,-0.001007405748139,0.0010079944417238,7.3131132809503e-08,5.3633988270839e-07,-0.0010616080232089,0.0010659320031926,-0.0010614255902729,0.0010660807941056,-0.0010655088746127,0.0010620257193255,-0.0010653554967712,0.0010621659682094,-0.0011281315622253,0.0011173672890969,-0.0011165888875369,0.0011288541041365,0.73575591828738,1473840,32975,0.0063189962874621,0.0063190300104184,0.0041921827199709,37.197134084618,0.00021277707267694,0.00021277707267694,0.00021277707267694,1502761.8809949,0.016972837768735
38448000,0.99999978367237,0.01673769378006,0.0059113181837287,0.0059113474118105,0.0049150281845212,-0.001521661762506,0.0015218300467991,-5.7616499464969e-06,5.9183008929733e-06,-1.692887302542e-07,3.7393123495301e-07,-0.0015941786591962,0.0015902922306674,-0.0015903163247778,0.0015941464592107,-0.0015940436294553,0.0015904516022478,-0.0015901185401254,0.001594369445132,-0.0013616996357206,0.0013504932830948,-0.0013501642831203,0.0013620035800012,3.4857279603834e-07,-1.8780288148562e-07,3.4659881874177e-07,-1.2454101089237e-07,-0.0015216588396773,0.0015218494421609,-0.0015920024388904,0.0015925114219239,-0.001592130576328,0.0015923598078841,-0.0015921373510565,0.001592331117448,-0.001592329257445,0.001592154306044,-0.0013557884654127,0.0013563301493741,-0.0013563026281496,0.001355861267882,-0.0015232232509523,0.0015237811104961,-0.001523789550793,0.0015231609683321,6.1551698384124e-06,-5.5575387685019e-06,-0.0010073891015636,0.0010079732078273,6.8839029945653e-08,5.3599956807556e-07,-0.0010617508924181,0.0010660696872964,-0.0010615670992195,0.0010662195898084,-0.0010656524026434,0.00106216261069,-0.0010654976370438,0.0010623041675699,-0.0011281327537928,0.0011173636774229,-0.001116588304909,0.0011288522928707,0.74362262950737,1473840,32975,0.0063200445477871,0.0063200783884655,0.0041921088952718,37.193944809177,0.00021275155847341,0.00021275155847341,0.00021275155847341,1498205.4864796,0.016974896249649
38534400,0.99999979589558,0.016737693977803,0.0059113182538174,0.0059113474818992,0.0049150282420864,-0.0015219827056717,0.0015221725875145,-5.7510042036131e-06,5.9293319612143e-06,-1.6419895463476e-07,3.9045829117468e-07,-0.0015942943422036,0.0015904255369289,-0.0015904319215658,0.0015942798786489,-0.0015941555465194,0.0015905887349599,-0.0015902303336024,0.0015945067040714,-0.001362197342013,0.0013510160255217,-0.0013506615783376,0.0013625267457712,3.5241111363373e-07,-1.952723875711e-07,3.4828122138814e-07,-1.2979512967041e-07,-0.0015219923757782,0.0015221794043125,-0.0015921257153533,0.0015926372219374,-0.0015922561208408,0.0015924833021603,-0.0015922644075712,0.0015924531212234,-0.0015924585891948,0.0015922739922532,-0.0013562989788798,0.0013568401244248,-0.0013568199175766,0.0013563644040488,-0.0015237311104357,0.0015242941572403,-0.0015243084483489,0.0015236628271766,6.155533951358e-06,-5.5575880831743e-06,-0.0010073697163395,0.0010079541506548,6.5555129268682e-08,5.3964302375758e-07,-0.0010619634876759,0.0010662804490696,-0.0010617773748648,0.0010664326520796,-0.0010658650814594,0.0010623731707388,-0.0010657080303282,0.0010625170370628,-0.0011281126823214,0.0011173457827464,-0.001116567841474,0.0011288349118857,0.74587018714736,1473840,32975,0.006321416120783,0.0063214499911482,0.0041920354988967,37.193642394521,0.00021274913915617,0.00021274913915617,0.00021274913915617,1492158.8602063,0.01697761325572
38620800,0.99999980742812,0.016737694164876,0.0059113183201164,0.0059113475481981,0.0049150282965617,-0.0015220216131777,0.0015222073599048,-5.7521507657176e-06,5.9263219143916e-06,-1.67366984627e-07,3.895078588018e-07,-0.001594313382729,0.0015904403414758,-0.0015904515648669,0.0015942940538208,-0.0015941738585817,0.0015906042784984,-0.0015902492703851,0.0015945216190573,-0.0013622475129568,0.001351064618474,-0.0013507135628343,0.0013625734816807,3.5315368541625e-07,-1.9678387023911e-07,3.4558948032689e-07,-1.2785830521585e-07,-0.0015220295917025,0.0015222158657364,-0.0015921434075934,0.0015926533714392,-0.0015922723077875,0.0015925009959812,-0.0015922828257953,0.0015924685258133,-0.0015924754919832,0.0015922909469431,-0.0013563513264379,0.0013568864094995,-0.0013568677423923,0.0013564153024643,-0.001523781298772,0.0015243472999402,-0.0015243608332647,0.0015237138015254,6.1545763307544e-06,-5.5566828381927e-06,-0.0010072511425337,0.001007835505367,6.7804224290137e-08,5.3728292422647e-07,-0.0010619171594048,0.0010662349651242,-0.0010617325831105,0.0010663856377364,-0.0010658181503513,0.0010623283248566,-0.0010656626292498,0.0010624706540647,-0.0011279811322176,0.0011172144724384,-0.0011164380946774,0.0011287017545928,0.74780418500856,1473840,32975,0.0063215678276942,0.0063216016929167,0.0041915448826863,37.193611884382,0.00021274889507505,0.00021274889507505,0.00021274889507505,1490725.0412899,0.016977423204653
38707200,0.99999981830903,0.016737694341779,0.0059113183828043,0.005911347610886,0.0049150283480887,-0.0015220521948307,0.0015222422269424,-5.7491022466999e-06,5.9273677900312e-06,-1.6591582281971e-07,3.9249883118519e-07,-0.0015943310702152,0.0015904625402649,-0.0015904699971024,0.0015943155192845,-0.0015941911791796,0.0015906268718715,-0.0015902669914504,0.0015945436382701,-0.0013622781554433,0.0013511016193016,-0.001350745831844,0.0013626089363597,3.5356558897548e-07,-1.9784451541365e-07,3.4594185834684e-07,-1.2912242258799e-07,-0.0015220627238605,0.0015222483451453,-0.0015921632009988,0.0015926735143633,-0.0015922925476217,0.001592520719749,-0.0015923030011737,0.0015924882227484,-0.0015924961362984,0.0015923099892596,-0.0013563853445471,0.0013569205644531,-0.0013569032975746,0.0013564477101286,-0.001523827820614,0.0015243943108098,-0.0015244085661205,0.0015237589734054,6.1523235905653e-06,-5.5567879852761e-06,-0.0010071407085091,0.0010077229535452,6.59076757201e-08,5.3698159733504e-07,-0.0010618660671866,0.0010661804744248,-0.0010616807825924,0.0010663317742444,-0.0010657663122557,0.0010622747278092,-0.0010656103168631,0.001062417667378,-0.0011278665764901,0.0011171003160291,-0.0011163256391939,0.0011285854039819,0.74948454290835,1473840,32975,0.0063217026119451,0.0063217368139481,0.0041910837320263,37.19360875918,0.00021274887007344,0.00021274887007344,0.00021274887007344,1489424.6223177,0.016977228988774
38793600,0.99999982857514,0.016737694509017,0.0059113184420618,0.0059113476701435,0.0049150283968117,-0.0015220823235411,0.0015222732508696,-5.7476643175914e-06,5.926781343259e-06,-1.6605697725212e-07,3.9355478259696e-07,-0.0015943488430943,0.0015904815484268,-0.0015904884792829,0.0015943338379868,-0.0015942086181186,0.0015906462518874,-0.0015902850925496,0.0015945623696327,-0.0013623107281205,0.0013511373588811,-0.0013507803736387,0.0013626428127273,3.539355419239e-07,-1.9869941852924e-07,3.4655141455146e-07,-1.3023668529337e-07,-0.0015220935034413,0.0015222786636751,-0.0015921812838813,0.0015926921529132,-0.0015923111775227,0.0015925387736926,-0.0015923214941365,0.0015925064659124,-0.0015925151991936,0.0015923276266116,-0.0013564191897147,0.0013569551301719,-0.0013569387815605,0.0013564805197487,-0.0015238692800481,0.0015244360037972,-0.0015244512666753,0.0015237993777377,6.1512079560074e-06,-5.5558842605284e-06,-0.0010070327631104,0.0010076148331035,6.4978651969726e-08,5.3776561965257e-07,-0.0010618167852477,0.0010661297714367,-0.0010616308970141,0.001066281654272,-0.0010657163481002,0.0010622246981182,-0.0010655597941414,0.0010623681958942,-0.0011277532788433,0.0011169892752367,-0.0011162142097351,0.0011284724309333,0.75095690904623,1473840,32975,0.0063218285539216,0.0063218626430407,0.0041906368372367,37.193608437719,0.00021274886750175,0.00021274886750175,0.00021274886750175,1488233.3244917,0.01697703078621
38880000,0.99999983826118,0.016737694667081,0.005911318498064,0.0059113477261458,0.0049150284428714,-0.0015221117641362,0.001522300402791,-5.7478955368691e-06,5.9247118295128e-06,-1.6757786442542e-07,3.9277560954953e-07,-0.0015943682149199,0.0015904990343332,-0.0015905084585901,0.0015943507003685,-0.0015942277505221,0.0015906639833503,-0.0015903048703151,0.0015945794714275,-0.0013623410617595,0.0013511674771419,-0.0013508126089767,0.0013626711441606,3.5430524771738e-07,-1.9909409251084e-07,3.4713416568799e-07,-1.3082019181567e-07,-0.0015221217900003,0.0015223069487946,-0.0015921993798715,0.0015927109167685,-0.0015923296616749,0.0015925571247562,-0.0015923398392955,0.0015925249714277,-0.0015925339411382,0.0015923457358409,-0.0013564489866256,0.0013569858154195,-0.0013569697140572,0.0013565099798083,-0.0015239066519939,0.0015244737307725,-0.0015244894662444,0.0015238363806616,6.1514619191604e-06,-5.5538087597005e-06,-0.0010069270120277,0.0010075114117672,6.5570079912244e-08,5.3953242474519e-07,-0.0010617655874742,0.0010660799268153,-0.001061579335814,0.001066232175303,-0.0010656645598133,0.0010621754281919,-0.0010655076003036,0.0010623192981028,-0.0011276443055179,0.0011168847593517,-0.0011161070103151,0.0011283661193033,0.75225771936319,1473840,32975,0.0063219451121923,0.0063219791582843,0.0041902041785237,37.193608404602,0.00021274886723682,0.00021274886723682,0.00021274886723682,1487126.1734804,0.016976828010167
