time,ASR_ext,ASR_strain,ASR_strain_xx,ASR_strain_yy,ASR_strain_zz,disp_x_101,disp_x_102,disp_x_103,disp_x_104,disp_x_105,disp_x_106,disp_x_p1_neg,disp_x_p1_pos,disp_x_p2_neg,disp_x_p2_pos,disp_x_p3_neg,disp_x_p3_pos,disp_x_p4_neg,disp_x_p4_pos,disp_x_p5_neg,disp_x_p5_pos,disp_x_p6_neg,disp_x_p6_pos,disp_y_101,disp_y_102,disp_y_103,disp_y_104,disp_y_105,disp_y_106,disp_y_p1_neg,disp_y_p1_pos,disp_y_p2_neg,disp_y_p2_pos,disp_y_p3_neg,disp_y_p3_pos,disp_y_p4_neg,disp_y_p4_pos,disp_y_p5_neg,disp_y_p5_pos,disp_y_p6_neg,disp_y_p6_pos,disp_y_p7_neg,disp_y_p7_pos,disp_y_p8_neg,disp_y_p8_pos,disp_z_101,disp_z_102,disp_z_103,disp_z_104,disp_z_105,disp_z_106,disp_z_p1_neg,disp_z_p1_pos,disp_z_p2_neg,disp_z_p2_pos,disp_z_p3_neg,disp_z_p3_pos,disp_z_p4_neg,disp_z_p4_pos,disp_z_p5_neg,disp_z_p5_pos,disp_z_p6_neg,disp_z_p6_pos,humidity,ndof,nelem,strain_xx,strain_yy,strain_zz,temp,thermal_strain_xx,thermal_strain_yy,thermal_strain_zz,vonmises,vstrain
2419200,0,0,0,0,0,0,0,0,0,0,0,0,0,0,0,0,0,0,0,0,0,0,0,0,0,0,0,0,0,0,0,0,0,0,0,0,0,0,0,0,0,0,0,0,0,0,0,0,0,0,0,0,0,0,0,0,0,0,0,0,0,0,0,0,0,0,0,0,0,0,0,0,0,0,0
2919200,0.076301709861726,0.0015936499817248,0.00053121666057495,0.00053121666057495,0.00053121666057495,-0.00017061784738995,0.00017061784739444,2.6854988422067e-15,2.6827636316479e-15,1.7732472991005e-15,3.6507267080991e-15,-0.00016895440657734,0.0001689544065839,-0.00016895547047209,0.00016895547047542,-0.0001689544179104,0.0001689544179157,-0.00016895545914033,0.00016895545914114,-0.00017102251516945,0.00017102251517382,-0.00017102354921959,0.00017102354923141,-2.7889956804494e-15,-4.6306676398553e-15,-4.1261565479031e-10,4.1260741356516e-10,-0.00017061784739465,0.00017061784738895,-0.00016895462171575,0.00016895429018331,-0.00016895525533191,0.00016895558686235,-0.00016895462171444,0.00016895429018249,-0.0001689552553332,0.00016895558686078,-0.00017102297520622,0.00017102218547781,-0.00017102308919717,0.00017102387891563,-0.00017220443064539,0.00017220472398121,-0.00017220443065237,0.00017220472397782,-5.0550862486574e-09,-5.0550862451072e-09,-0.0001638252217937,0.00016381205892989,-4.5021735648645e-09,-5.4369498858763e-09,-0.00016322087515543,0.00016321027441846,-0.00016322120268052,0.00016320994689201,-0.00016322087515316,0.00016321027442128,-0.00016322120268297,0.00016320994688764,-0.0001671098013623,0.00016709887753235,-0.00016710980136351,0.00016709887753548,0.83502648770561,120135,2834,0.00071065426234495,0.0007106542623433,0.00068234439562135,32.392147490177,0.00017433717992142,0.00017433717992142,0.00017433717992142,769061.13623294,0.0021058685578268
3419200,0.15586599504595,0.003133724193338,0.0010527092629597,0.0010527092629564,0.0010283056674218,-0.00029650868704796,0.00029650868705008,1.3739727319585e-15,1.5879367837389e-15,7.6111645429713e-16,2.1845067942287e-15,-0.00029618935859773,0.00029618935860161,-0.00029619076442442,0.00029619076442677,-0.00029618936289578,0.00029618936289915,-0.00029619076012767,0.00029619076012558,-0.00029433928232334,0.00029433928232262,-0.00029434192302971,0.00029434192303942,-7.4771833418873e-15,-8.5645317302986e-15,3.982642976549e-10,-3.9829151599286e-10,-0.00029650868705558,0.00029650868704075,-0.00029618921075397,0.00029618949443089,-0.00029619091226403,0.00029619062857285,-0.00029618921075259,0.00029618949442948,-0.0002961909122647,0.00029619062857253,-0.00029433890782509,0.00029433968416358,-0.00029434229756703,0.00029434152117792,-0.00029714172188077,0.00029714147132409,-0.00029714172188608,0.00029714147132201,-2.145347905412e-09,-2.145347689086e-09,-0.00027546787829435,0.00027546114535197,-2.5076520880787e-09,-1.7321878498796e-09,-0.00027949539679693,0.00027949058869588,-0.00027949512040097,0.00027949086508012,-0.00027949539679526,0.00027949058869851,-0.00027949512040306,0.00027949086507695,-0.00028118178993196,0.0002811773472887,-0.00028118178993263,0.00028117734729297,0.77960726241633,120135,2834,0.0012346883147779,0.0012346883147744,0.0011471133098589,31.910922788075,0.0001704873823046,0.0001704873823046,0.0001704873823046,1058978.1431859,0.00362303877785
3919200,0.24345696044678,0.0047491768431153,0.0016165587397852,0.0016165587397838,0.0015160593635462,-0.00043466913049877,0.00043466913050062,1.2756963224707e-15,1.5018217674347e-15,1.5602685113386e-15,1.5628051985504e-15,-0.00043873489354677,0.00043873489354977,-0.00043873603471508,0.00043873603471774,-0.00043873489083656,0.00043873489083895,-0.00043873603742687,0.00043873603742436,-0.00042448810233629,0.00042448810233414,-0.00042448974583359,0.0004244897458453,-7.3422904039505e-15,-6.880157721465e-15,8.7976035029264e-10,-8.7978268847715e-10,-0.00043466913050581,0.00043466913049312,-0.00043873456459804,0.00043873517768317,-0.00043873636366827,0.00043873575056955,-0.00043873456459536,0.00043873517768116,-0.00043873636366745,0.00043873575056811,-0.0004244872336673,0.00042448895855454,-0.00042449061453802,0.00042448888960645,-0.00043452491801757,0.00043452433690626,-0.0004345249180213,0.00043452433690507,-1.6172502382151e-09,-1.6172500226219e-09,-0.00038645109481744,0.0003864458591671,-2.5355274431785e-09,-7.2741658556234e-10,-0.00039464138388519,0.00039463711485987,-0.00039464075727745,0.00039463774145697,-0.00039464138388358,0.0003946371148621,-0.00039464075727933,0.00039463774145218,-0.00039803279019336,0.00039802980031948,-0.0003980327901948,0.00039802980032436,0.74640349119053,120135,2834,0.0018094777737842,0.0018094777737833,0.0016089210663819,32.495963683224,0.00017516770946579,0.00017516770946579,0.00017516770946579,1604605.6506005,0.0052415690591757
4419200,0.33929763074317,0.0064997689157818,0.0022362647233393,0.0022362647233431,0.0020272394690995,-0.0005877211810147,0.0005877211810169,1.4589848407793e-15,1.6691254799506e-15,1.5058363506743e-15,1.6105390344321e-15,-0.00059750112690144,0.0005975011269054,-0.00059750208911601,0.00059750208911826,-0.00059750111908061,0.00059750111908398,-0.00059750209693726,0.0005975020969341,-0.00056679771282831,0.00056679771282804,-0.00056679909236558,0.00056679909237664,-8.4076549166194e-15,-8.3214725482827e-15,1.227199520298e-09,-1.2272290408463e-09,-0.00058772118102534,0.00058772118100779,-0.00059750067305262,0.00059750152140195,-0.0005975025429701,0.00059750169460102,-0.00059750067305001,0.00059750152139971,-0.00059750254296979,0.00059750169460036,-0.00056679651169128,0.00056679891473402,-0.00056680029354819,0.00056679789044606,-0.00058741411941407,0.00058741329972886,-0.00058741411941942,0.00058741329972803,-1.0744967278702e-09,-1.0744965574119e-09,-0.00050268968266259,0.00050268586385569,-2.3712225309852e-09,1.7180290345099e-10,-0.00051407389395311,0.00051407062969265,-0.00051407301914722,0.00051407150449089,-0.00051407389395007,0.00051407062969509,-0.00051407301914933,0.00051407150448644,-0.00052392180499058,0.00052392013860129,-0.00052392180499322,0.00052392013860626,0.74424082049435,120135,2834,0.0024458312500885,0.0024458312500917,0.0020923849273681,33.597313013749,0.00018397850410999,0.00018397850410999,0.00018397850410999,2037171.2248076,0.0070085013935885
4919200,0.44316882081963,0.0083987606108841,0.0029209179655591,0.00292091796556,0.002556924679765,-0.00075838888222971,0.00075838888223152,1.2825490543009e-15,1.4861016594379e-15,1.0861727005225e-15,1.6514789602161e-15,-0.00077425457261804,0.00077425457262208,-0.00077425546024441,0.00077425546024597,-0.00077425456078477,0.00077425456078778,-0.00077425547207837,0.00077425547207508,-0.00072400019480682,0.0007240001948066,-0.00072400159320116,0.00072400159321207,-8.9637849860511e-15,-9.3199630986204e-15,1.3605416899883e-09,-1.3605747312031e-09,-0.00075838888224069,0.000758388882221,-0.00077425407704575,0.0007742550103932,-0.00077425595582453,0.0007742550224495,-0.00077425407704419,0.0007742550103918,-0.00077425595582469,0.00077425502244974,-0.00072399888708042,0.00072400154118734,-0.00072400290098034,0.00072400024680315,-0.00075920935619683,0.00075920843438713,-0.00075920935620241,0.00075920843438544,-7.1616996182156e-10,-7.1616978688696e-10,-0.00062219291526082,0.00062218993709207,-2.1536327840115e-09,6.7473269274704e-10,-0.00063719257689093,0.0006371900284766,-0.00063719160844678,0.00063719099691325,-0.0006371925768877,0.00063719002847934,-0.00063719160844875,0.00063719099690904,-0.00065657321962769,0.00065657225699141,-0.00065657321962975,0.00065657225699759,0.74696695512676,120135,2834,0.0031549419333222,0.0031549419333231,0.0025892166060579,35.341419242157,0.00019793135393725,0.00019793135393725,0.00019793135393725,2397597.6723386,0.008938832353859
5419200,0.54421964112454,0.010206128901352,0.0035853368646216,0.0035853368646208,0.0030354551721092,-0.00092318018126862,0.00092318018127103,1.4654846422148e-15,1.6406557614456e-15,1.6103772746679e-15,1.8555903718114e-15,-0.00094598310759441,0.00094598310759932,-0.00094598388895282,0.00094598388895409,-0.00094598309228752,0.00094598309229158,-0.00094598390425997,0.00094598390425696,-0.00087280217915264,0.0008728021791517,-0.00087280343095309,0.00087280343096272,-8.581090794743e-15,-8.5323093116382e-15,1.4918126672684e-09,-1.4918446943488e-09,-0.00092318018127906,0.00092318018126,-0.00094598257312769,0.00094598358640181,-0.00094598442342872,0.00094598341012668,-0.00094598257312621,0.00094598358639926,-0.00094598442342898,0.00094598341012638,-0.00087280075449695,0.00087280365851879,-0.00087280485565546,0.00087280195157067,-0.00092548858864471,0.00092548757169424,-0.00092548858865,0.00092548757169516,-1.4434469585909e-10,-1.4434451916814e-10,-0.00072571238891285,0.00072571085969258,-1.7216647507207e-09,1.3825876312499e-09,-0.00074538606512956,0.00074538463328065,-0.00074538500563762,0.00074538569276508,-0.00074538606512717,0.00074538463328336,-0.00074538500563937,0.00074538569276094,-0.00077434585293236,0.00077434615664189,-0.00077434585293273,0.00077434615664608,0.73229095938567,120135,2834,0.0038391495244048,0.0038391495244036,0.0030194507357815,36.271728142701,0.00020537382514161,0.00020537382514161,0.00020537382514161,2688278.1906315,0.010755205231044
5919200,0.63557780462835,0.011619956040914,0.0041140443407901,0.0041140443407888,0.0033918673593349,-0.0010546573459548,0.001054657345957,1.4199860321661e-15,1.558158281687e-15,1.6523759916359e-15,1.7823720203465e-15,-0.0010882105547408,0.001088210554745,-0.001088211203187,0.0010882112031886,-0.0010882105369559,0.001088210536959,-0.0010882112209731,0.0010882112209701,-0.00098468903835854,0.00098468903835822,-0.00098469024667633,0.00098469024668654,-8.4402127455295e-15,-8.3303790719207e-15,1.6489298154613e-09,-1.6489609303571e-09,-0.0010546573459651,0.0010546573459462,-0.0010882099645701,0.001088211083066,-0.0010882117933658,0.0010882106748417,-0.0010882099645678,0.0010882110830634,-0.001088211793366,0.001088210674842,-0.00098468745928373,0.00098469066811664,-0.0009846918257984,0.00098468861690529,-0.0010558154590379,0.0010558143329712,-0.0010558154590427,0.0010558143329709,4.691445866184e-10,4.6914473847969e-10,-0.00079795038843759,0.00079795035353445,-1.2810016181475e-09,2.153198270815e-09,-0.00082363210779521,0.00082363192630031,-0.00082363093747957,0.00082363309660912,-0.00082363210779299,0.00082363192630313,-0.00082363093748147,0.00082363309660524,-0.00085800951780007,0.0008580111645021,-0.00085800951780098,0.00085801116450667,0.6360792580923,120135,2834,0.0043846931634049,0.0043846931634038,0.0033196278264284,36.778423420798,0.00020942738736638,0.00020942738736638,0.00020942738736638,2980688.4517764,0.012162439291477
6419200,0.71274093581977,0.012730062086546,0.0045309442233664,0.0045309442233636,0.0036681736398162,-0.0011571560874289,0.0011571560874306,9.7485257186427e-16,1.1146130081612e-15,2.0093209695648e-15,8.8164953680008e-16,-0.0012016293357948,0.0012016293357983,-0.0012016298308398,0.0012016298308418,-0.0012016293155913,0.0012016293155934,-0.0012016298510461,0.001201629851044,-0.0010689275794243,0.001068927579423,-0.0010689287172463,0.001068928717257,-9.6553520944448e-15,-8.2774084360012e-15,1.881078587646e-09,-1.8811126264402e-09,-0.0011571560874396,0.001157156087419,-0.0012016286602892,0.0012016299379895,-0.0012016305063587,0.0012016292286245,-0.0012016286602853,0.001201629937988,-0.0012016305063586,0.0012016292286257,-0.0010689257698518,0.0010689294306453,-0.0010689305268691,0.0010689268660095,-0.0011571412803875,0.0011571399959076,-0.0011571412803895,0.0011571399959077,1.1473954342621e-09,1.147395622469e-09,-0.00085072059147973,0.00085072221001283,-8.5298500604064e-10,3.0627358370814e-09,-0.00087935733862955,0.00087935851711003,-0.0008793560062222,0.00087935984951115,-0.00087935733862734,0.00087935851711212,-0.00087935600622413,0.00087935984950758,-0.00092195788178398,0.0009219610807181,-0.00092195788178483,0.00092196108072283,0.59525943091212,120135,2834,0.004809786416106,0.0048097864161043,0.0035388915283456,36.741547043095,0.00020913237634476,0.00020913237634476,0.00020913237634476,3199917.8089694,0.013245509026217
6919200,0.78206145428187,0.013807393186618,0.0049342400528763,0.0049342400528743,0.0039389130808674,-0.0012617986006909,0.0012617986006929,1.2276683779267e-15,1.3674876359561e-15,2.0677603607521e-15,1.1554058796141e-15,-0.0013135290827871,0.0013135290827912,-0.0013135296791191,0.0013135296791212,-0.0013135290630402,0.001313529063043,-0.0013135296988677,0.001313529698865,-0.0011587440923108,0.0011587440923095,-0.0011587453157616,0.0011587453157717,-8.4236250169791e-15,-7.2325068207231e-15,1.9309285352803e-09,-1.9309600130596e-09,-0.0012617986007006,0.0012617986006821,-0.00131352840267,0.0013135297037957,-0.0013135303592454,0.0013135290580916,-0.0013135284026677,0.0013135297037943,-0.0013135303592454,0.0013135290580924,-0.0011587422470898,0.0011587460073255,-0.0011587471610296,0.0011587434007324,-0.001263217511949,0.00126321619479,-0.0012632175119516,0.00126321619479,5.9391822402436e-10,5.9391846869846e-10,-0.00090288189805855,0.00090288205691537,-1.436910208203e-09,2.5665097200957e-09,-0.00093375009258621,0.00093375003259667,-0.00093374873375369,0.00093375139142318,-0.00093375009258372,0.00093375003259932,-0.00093374873375585,0.00093375139141957,-0.00098753559960702,0.00098753765378358,-0.00098753559960772,0.00098753765378781,0.64378173705164,120135,2834,0.005243576222331,0.0052435762223289,0.003755613504077,38.62203083981,0.00022417624671848,0.00022417624671848,0.00022417624671848,3182859.2551641,0.014344788109491
7419200,0.84167891438395,0.014609108615024,0.005237866175534,0.0052378661755317,0.0041333762639586,-0.0013446747939632,0.0013446747939653,1.3374297306751e-15,1.467602224583e-15,2.2025797715234e-15,1.0691438089788e-15,-0.0014041599441744,0.001404159944179,-0.0014041605906943,0.0014041605906963,-0.0014041599248409,0.0014041599248435,-0.0014041606100277,0.0014041606100251,-0.0012262027704499,0.0012262027704488,-0.00122620403447,0.0012262040344797,-8.5976785232934e-15,-7.1768144733729e-15,1.9254731433265e-09,-1.9255043790674e-09,-0.0013446747939731,0.0013446747939543,-0.0014041592713346,0.001404160564684,-0.0014041612635441,0.0014041599701642,-0.0014041592713318,0.0014041605646827,-0.001404161263544,0.0014041599701656,-0.0012262009358888,0.0012262046860181,-0.001226205869076,0.0012262021188873,-0.0013462310051532,0.0013462296920368,-0.0013462310051557,0.0013462296920379,3.8067167988963e-10,3.8067194223347e-10,-0.0009323227469747,0.00093232239755227,-1.6371713455098e-09,2.3507741769184e-09,-0.00096965860949953,0.00096965809520944,-0.00096965725672416,0.00096965944798017,-0.0009696586094973,0.00096965809521157,-0.00096965725672575,0.00096965944797624,-0.0010271640950021,0.0010271657008669,-0.0010271640950034,0.0010271657008716,0.55664260548471,120135,2834,0.0055869786336617,0.0055869786336594,0.0038780255879832,40.760342977693,0.00024128274382154,0.00024128274382154,0.00024128274382154,3095165.8086098,0.015165986257468
7919200,0.88640662773443,0.015157335554965,0.0054456120377085,0.0054456120377062,0.0042661114795499,-0.0013973099699117,0.0013973099699144,1.5751283514983e-15,1.7849454711411e-15,1.7760633895414e-15,1.9040300684825e-15,-0.0014632207954338,0.001463220795438,-0.0014632212350063,0.0014632212350093,-0.0014632207739034,0.001463220773907,-0.0014632212565371,0.0014632212565356,-0.0012681811499144,0.0012681811499135,-0.0012681822637763,0.0012681822637871,-8.4709765115999e-15,-8.2979972486631e-15,2.043425659994e-09,-2.0434571947891e-09,-0.001397309969922,0.0013973099699027,-0.0014632200690031,0.0014632214515443,-0.0014632219614474,0.0014632205788763,-0.0014632200690007,0.0014632214515427,-0.0014632219614477,0.0014632205788768,-0.0012681791909455,0.0012681831689329,-0.00126818422279,0.0012681802447439,-0.001398288862124,0.0013982874671284,-0.001398288862128,0.0013982874671289,1.5819514189797e-09,1.5819516099936e-09,-0.00094817306848215,0.00094817578658974,-5.8673305059041e-10,3.6668696460317e-09,-0.00098836521187551,0.00098836728154191,-0.00098836376765689,0.0009883687257536,-0.00098836521187305,0.00098836728154383,-0.00098836376765898,0.0009883687257498,-0.0010495670149347,0.0010495712833035,-0.0010495670149352,0.0010495712833082,0.5070717593097,120135,2834,0.0058050136036747,0.0058050136036718,0.0039439597372726,40.955786551646,0.00024284629241316,0.00024284629241316,0.00024284629241316,3064744.7821881,0.015675759589512
8419200,0.91967636052707,0.015544498550116,0.0055917674424154,0.005591767442413,0.0043609636652876,-0.001437146855515,0.0014371468555172,1.3127246030468e-15,1.5148948974713e-15,1.6693607668804e-15,1.5512761389906e-15,-0.001508987084885,0.0015089870848888,-0.0015089874818693,0.0015089874818712,-0.0015089870628276,0.0015089870628305,-0.0015089875039263,0.001508987503924,-0.0012954533811047,0.0012954533811037,-0.0012954545191103,0.0012954545191204,-8.5924433891055e-15,-8.1788957056078e-15,2.2166035366739e-09,-2.2166354640159e-09,-0.0014371468555252,0.0014371468555059,-0.0015089862984273,0.0015089877977871,-0.001508988268336,0.0015089867689469,-0.0015089862984248,0.0015089877977854,-0.0015089882683362,0.0015089867689475,-0.0012954512503186,0.0012954555660463,-0.0012954566499427,0.0012954523341534,-0.0014390816409554,0.0014390801289808,-0.0014390816409597,0.0014390801289814,1.6414766666879e-09,1.6414768644791e-09,-0.00095506403124423,0.0009550668457324,-6.9974446005178e-10,3.8978812707557e-09,-0.00099613646830662,0.00099613853235013,-0.0009961349085032,0.00099614009214818,-0.00099613646830431,0.00099613853235246,-0.00099613490850512,0.00099614009214446,-0.0010653713939716,0.0010653758331809,-0.0010653713939721,0.0010653758331853,0.48138031764921,120135,2834,0.0059700034747659,0.0059700034747636,0.0039727168150615,41.43175816963,0.00024665406535704,0.00024665406535704,0.00024665406535704,3013690.2291118,0.016040210146065
8919200,0.94391469146411,0.015796995807075,0.0056871915475235,0.0056871915475211,0.0044226127120308,-0.0014643483092461,0.0014643483092482,1.2373151420482e-15,1.4568378475449e-15,1.7725634964607e-15,1.4997483013659e-15,-0.0015399965146182,0.0015399965146223,-0.0015399968866138,0.0015399968866157,-0.0015399964925878,0.0015399964925905,-0.0015399969086447,0.0015399969086424,-0.0013148902274537,0.0013148902274529,-0.0013148913550185,0.0013148913550286,-8.3729795053412e-15,-7.7944331285249e-15,2.3788117473779e-09,-2.3788431480813e-09,-0.001464348309256,0.0014643483092371,-0.001539995674961,0.0015399972817375,-0.0015399977262805,0.0015399961194745,-0.0015399956749585,0.0015399972817359,-0.0015399977262805,0.0015399961194751,-0.0013148879386838,0.0013148925723579,-0.0013148936438345,0.0013148890100988,-0.0014667394378885,0.0014667378177991,-0.0014667394378921,0.0014667378177995,1.7820855808214e-09,1.7820857587975e-09,-0.00095604548636642,0.00095604863288546,-7.2061475630208e-10,4.2018355328234e-09,-0.00099968177931286,0.00099968403776782,-0.00099968011132866,0.00099968570574675,-0.0009996817793106,0.00099968403777027,-0.00099968011133053,0.00099968570574323,-0.0010715672009462,0.0010715720377289,-0.001071567200947,0.0010715720377332,0.43063171924148,120135,2834,0.006082633597156,0.0060826335971535,0.0039769196857166,41.890791442192,0.00025032633153754,0.00025032633153754,0.00025032633153754,2916110.0624446,0.016273402804183
9419200,0.96049964739619,0.015960651198005,0.0057488026219637,0.0057488026219612,0.0044630459540799,-0.0014796310981236,0.0014796310981258,1.2831960933578e-15,1.5015423642056e-15,1.7514170836456e-15,1.5079833439087e-15,-0.0015581046193597,0.0015581046193636,-0.0015581047705292,0.0015581047705313,-0.0015581045952694,0.0015581045952722,-0.00155810479462,0.0015581047946177,-0.0013244489385659,0.001324448938565,-0.0013244499609401,0.0013244499609502,-8.4332129593682e-15,-7.8924149698057e-15,2.7035598121371e-09,-2.7035915283313e-09,-0.0014796310981336,0.0014796310981144,-0.0015581036573723,0.0015581054907577,-0.0015581057325261,0.0015581038991108,-0.0015581036573697,0.001558105490756,-0.0015581057325262,0.0015581038991114,-0.001324446320909,0.0013244515872758,-0.0013244525786439,0.0013244473122151,-0.0014824034803111,0.0014824016402715,-0.0014824034803149,0.0014824016402719,2.8583259594269e-09,2.8583261413043e-09,-0.00095376485933012,0.00095377067948889,4.4697911274198e-12,5.5980897682738e-09,-0.00099807158281945,0.00099807599150914,-0.00099806968775363,0.00099807788656933,-0.00099807158281725,0.0009980759915114,-0.00099806968775552,0.00099807788656571,-0.0010733861780671,0.0010733934776039,-0.0010733861780677,0.0010733934776081,0.40723906797413,120135,2834,0.0061459088742239,0.0061459088742213,0.0039675474960996,41.152076711508,0.00024441661369206,0.00024441661369206,0.00024441661369206,2861504.3625334,0.016392506547716
9919200,0.97165221804724,0.016070067246695,0.0057898143358078,0.0057898143358053,0.0044904385750816,-0.0014890219916393,0.0014890219916414,1.3108423076085e-15,1.534541356109e-15,1.7924452420282e-15,1.502512922791e-15,-0.0015689814951459,0.0015689814951499,-0.0015689815233919,0.001568981523394,-0.00156898147046,0.0015689814704627,-0.0015689815480782,0.001568981548076,-0.0013302826699169,0.0013302826699162,-0.001330283632551,0.0013302836325613,-8.4893877138562e-15,-7.8964981401044e-15,3.0771155415309e-09,-3.0771473213498e-09,-0.0014890219916493,0.0014890219916301,-0.0015689804047041,0.0015689824899232,-0.0015689826138435,0.0015689805285943,-0.0015689804047014,0.0015689824899215,-0.0015689826138436,0.0015689805285948,-0.0013302796831916,0.0013302856803548,-0.0013302866193232,0.0013302806220981,-0.0014923493641121,0.0014923472739192,-0.0014923493641157,0.0014923472739197,3.4944785347545e-09,3.4944787108094e-09,-0.00094922845624146,0.00094923583420392,2.586521025617e-10,6.6072515618678e-09,-0.00099501301242944,0.00099501855375912,-0.00099501086469744,0.00099502070148578,-0.00099501301242727,0.00099501855376147,-0.00099501086469936,0.00099502070148219,-0.0010716156151621,0.0010716244872564,-0.0010716156151629,0.0010716244872608,0.40432824355073,120135,2834,0.0061847797974098,0.006184779797407,0.0039487982719546,39.829766776505,0.00023383813421204,0.00023383813421204,0.00023383813421204,2798332.3993362,0.016452476787379
10419200,0.97914505335452,0.01614810151806,0.0058189131547692,0.0058189131547667,0.0045102752085242,-0.0014947289075394,0.0014947289075415,1.2181392572701e-15,1.434662054412e-15,1.7532405573515e-15,1.3988690302172e-15,-0.001575346896204,0.0015753468962079,-0.0015753468378375,0.0015753468378396,-0.0015753468713657,0.0015753468713684,-0.0015753468626762,0.0015753468626739,-0.0013338012895302,0.0013338012895291,-0.0013338022035387,0.0013338022035488,-8.5017402776704e-15,-7.8508319685386e-15,3.4111579578942e-09,-3.411189666841e-09,-0.0014947289075494,0.0014947289075302,-0.0015753456934254,0.0015753480020533,-0.0015753480406255,0.0015753457319677,-0.0015753456934229,0.0015753480020517,-0.0015753480406256,0.0015753457319682,-0.0013337979747616,0.0013338046260338,-0.0013338055183537,0.0013337988670197,-0.0014986306169753,0.0014986283036605,-0.001498630616979,0.0014986283036611,3.9553823639879e-09,3.9553825464842e-09,-0.00094339082924677,0.00094339933691076,3.825094236585e-10,7.4027383724095e-09,-0.00099116737661571,0.00099117367935419,-0.00099116500473761,0.00099117605122687,-0.00099116737661348,0.00099117367935649,-0.00099116500473949,0.00099117605122329,-0.0010677554780687,0.0010677655338687,-0.0010677554780692,0.0010677655338731,0.42845224819223,120135,2834,0.0062083925075805,0.0062083925075778,0.0039246400057812,38.102125019442,0.00022001700015554,0.00022001700015554,0.00022001700015554,2736098.0904607,0.016475930192172
10919200,0.98463798800287,0.016200986477245,0.0058386570244341,0.0058386570244316,0.0045236724283789,-0.00150066502757,0.0015006650275722,1.2826666977658e-15,1.496483695215e-15,1.8162680436698e-15,1.4578084061303e-15,-0.0015814387782424,0.0015814387782464,-0.0015814387115002,0.0015814387115023,-0.0015814387534739,0.0015814387534767,-0.0015814387362691,0.0015814387362668,-0.0013391967409888,0.0013391967409878,-0.0013391976434229,0.001339197643433,-8.4982697954559e-15,-7.8399035340124e-15,3.440039718788e-09,-3.4400713838901e-09,-0.0015006650275801,0.0015006650275609,-0.0015814375664698,0.0015814398938576,-0.0015814399232824,0.0015814375958645,-0.0015814375664673,0.001581439893856,-0.0015814399232825,0.0015814375958651,-0.0013391933982008,0.0013392001061148,-0.0013392009862573,0.0013391942782817,-0.0015047854422295,0.0015047831097554,-0.0015047854422333,0.001504783109756,3.050267711177e-09,3.0502678946155e-09,-0.00094028507343466,0.00094029122623859,-5.1383587978423e-10,6.5143364504931e-09,-0.00099061241831281,0.00099061662590089,-0.00099061004489833,0.00099061899930986,-0.00099061241831063,0.00099061662590321,-0.00099061004490024,0.00099061899930634,-0.0010654066641997,0.0010654146906521,-0.0010654066642002,0.0010654146906564,0.39597081456719,120135,2834,0.0062329492229404,0.0062329492229377,0.0039118010926387,37.946481466556,0.00021877185173245,0.00021877185173245,0.00021877185173245,2638187.2417026,0.016512809691473
11419200,0.98863984385733,0.016239424982119,0.0058529511483438,0.0058529511483413,0.0045335226854338,-0.0015045377146417,0.0015045377146438,1.2491971320027e-15,1.4666610768638e-15,1.8105035138898e-15,1.4115451135598e-15,-0.001586309198275,0.0015863091982789,-0.0015863093652867,0.0015863093652888,-0.0015863091765826,0.0015863091765854,-0.0015863093869793,0.0015863093869769,-0.001340247838016,0.0013402478380149,-0.0013402488612178,0.0013402488612278,-8.5212102711107e-15,-7.818318370814e-15,3.5265572786193e-09,-3.5265890721797e-09,-0.0015045377146517,0.0015045377146325,-0.0015863079795493,0.0015863103487464,-0.0015863105840218,0.0015863082147946,-0.0015863079795467,0.0015863103487449,-0.0015863105840219,0.0015863082147952,-0.0013402444279256,0.0013402513113887,-0.001340252271355,0.0013402453878296,-0.0015090154557851,0.0015090130708708,-0.0015090154557888,0.0015090130708715,2.8738021501398e-09,2.8738023293703e-09,-0.0009374425850315,0.00093744837628056,-7.7392781290421e-10,6.4466301877847e-09,-0.00098773879794521,0.00098774264706918,-0.00098773636472289,0.00098774508028602,-0.00098773879794303,0.00098774264707147,-0.00098773636472481,0.00098774508028252,-0.0010647021139958,0.0010647099797537,-0.0010647021139963,0.001064709979758,0.39457194111806,120135,2834,0.0062489829736166,0.006248982973614,0.0039000423459198,37.628928304854,0.00021623142643884,0.00021623142643884,0.00021623142643884,2648169.2251117,0.016533455199773
11919200,0.99153991082752,0.016269469512785,0.0058640885619485,0.0058640885619459,0.004541292388891,-0.0015072770471503,0.0015072770471524,1.2379033593727e-15,1.4550731955715e-15,1.8304440811898e-15,1.3588702521524e-15,-0.0015892444686558,0.0015892444686597,-0.0015892445939221,0.0015892445939242,-0.0015892444467995,0.0015892444468021,-0.001589244615779,0.0015892446157766,-0.0013420725454035,0.0013420725454024,-0.0013420735459368,0.0013420735459469,-8.5150339892037e-15,-7.7414280267465e-15,3.6458803894422e-09,-3.6459120409413e-09,-0.0015072770471602,0.0015072770471411,-0.0015892432089238,0.0015892456585623,-0.0015892458536637,0.0015892434039952,-0.0015892432089212,0.0015892456585607,-0.0015892458536637,0.0015892434039959,-0.0013420690174705,0.0013420761344006,-0.0013420770739163,0.0013420699569245,-0.0015120898657105,0.0015120874009466,-0.0015120898657141,0.0015120874009473,3.0807316688845e-09,3.0807318475509e-09,-0.00093461650843448,0.00093462281486746,-6.8893800487274e-10,6.7727372200416e-09,-0.00098602351779258,0.00098602773184595,-0.00098602100386597,0.00098603024576706,-0.00098602351779039,0.00098602773184826,-0.00098602100386786,0.00098603024576355,-0.001062729669423,0.0010627380476736,-0.0010627296694236,0.001062738047678,0.42516298576731,120135,2834,0.0062603152493358,0.0062603152493331,0.0038883482050565,37.105745136297,0.00021204596109038,0.00021204596109038,0.00021204596109038,2613727.0949466,0.016544609940602
12419200,0.99367480179056,0.016292719984703,0.0058726917528888,0.0058726917528863,0.0045473364789282,-0.0015104235226559,0.0015104235226579,1.1655526284614e-15,1.3857811947475e-15,1.8025919908756e-15,1.2783433004308e-15,-0.0015922141820043,0.0015922141820082,-0.0015922143434735,0.0015922143434754,-0.001592214160771,0.0015922141607736,-0.0015922143647073,0.0015922143647048,-0.0013447863430771,0.0013447863430759,-0.0013447873556714,0.0013447873556814,-8.5581503190882e-15,-7.7313348723098e-15,3.696092260859e-09,-3.6961240084689e-09,-0.0015104235226658,0.0015104235226466,-0.0015922129099043,0.0015922153897938,-0.0015922156155829,0.0015922131356634,-0.0015922129099017,0.0015922153897923,-0.0015922156155829,0.001592213135664,-0.001344782769131,0.0013447899856068,-0.001344790929664,0.0013447837131264,-0.0015155920644813,0.0015155895673479,-0.0015155920644848,0.0015155895673486,2.9132813997883e-09,2.9132815743653e-09,-0.00093083353021835,0.00093083941898255,-8.9922097153422e-10,6.6575135227965e-09,-0.00098470307895103,0.00098470687718929,-0.00098470053426212,0.00098470942187272,-0.0009847030789489,0.00098470687719163,-0.00098470053426399,0.0009847094218692,-0.0010594773570824,0.0010594854196003,-0.0010594773570831,0.0010594854196046,0.44663644431852,120135,2834,0.006273324312851,0.0062733243128483,0.0038726945773213,36.802856690885,0.00020962285352708,0.00020962285352708,0.00020962285352708,2558476.7716732,0.016555151613933
12919200,0.99522793424426,0.016308581118459,0.005878568245195,0.0058785682451925,0.0045514446280711,-0.0015116989788073,0.0015116989788094,1.251197070906e-15,1.4711903502623e-15,1.8537963089717e-15,1.3298711380555e-15,-0.0015935728503336,0.0015935728503376,-0.001593572942294,0.0015935729422961,-0.001593572828584,0.0015935728285867,-0.0015935729640442,0.0015935729640418,-0.0013453602507962,0.0013453602507951,-0.001345361223689,0.001345361223699,-8.5599149710616e-15,-7.7349467794317e-15,3.790705591666e-09,-3.7907372879566e-09,-0.0015116989788173,0.0015116989787981,-0.0015935715429191,0.0015935740886516,-0.0015935742497182,0.0015935717039557,-0.0015935715429165,0.0015935740886501,-0.0015935742497182,0.0015935717039563,-0.0013453565812033,0.0013453639820263,-0.0013453648933285,0.0013453574924436,-0.0015170721017371,0.0015170695405896,-0.0015170721017407,0.0015170695405903,3.2385647831348e-09,3.2385649576518e-09,-0.00092643429640344,0.00092644100891261,-6.756994641099e-10,7.0760765609536e-09,-0.00098192196757525,0.00098192640276287,-0.00098191935696393,0.00098192901336868,-0.00098192196757305,0.00098192640276516,-0.00098191935696578,0.00098192901336514,-0.0010557846735319,0.0010557934844978,-0.0010557846735325,0.0010557934845022,0.41875849256559,120135,2834,0.0062785916234372,0.0062785916234346,0.0038544766323335,36.137721867751,0.00020430177494201,0.00020430177494201,0.00020430177494201,2519213.7405398,0.016547344632863
13419200,0.99633448899419,0.016319623181262,0.0058826550280795,0.005882655028077,0.0045543131251055,-0.0015098799363918,0.0015098799363938,1.2243155391772e-15,1.4443088185335e-15,1.846355359817e-15,1.3097541055582e-15,-0.0015923816278799,0.0015923816278839,-0.0015923815897363,0.0015923815897384,-0.0015923816050296,0.0015923816050322,-0.0015923816125872,0.0015923816125847,-0.001342329350652,0.0013423293506509,-0.0013423302637973,0.0013423302638073,-8.5506799590673e-15,-7.7132043370307e-15,3.9631912107314e-09,-3.9632228381543e-09,-0.0015098799364017,0.0015098799363826,-0.0015923802551034,0.0015923829216033,-0.0015923829625224,0.0015923802959925,-0.0015923802551008,0.0015923829216018,-0.0015923829625224,0.0015923802959932,-0.0013423255061387,0.0013423332429062,-0.0013423341083569,0.0013423263715279,-0.0015152894544428,0.0015152867763108,-0.0015152894544464,0.0015152867763116,3.8486551460598e-09,3.8486553204277e-09,-0.00092303686550808,0.00092304510836452,-2.5259438748838e-10,7.8559004754124e-09,-0.00097748799512551,0.00097749366178438,-0.00097748526390081,0.00097749639300356,-0.00097748799512333,0.00097749366178668,-0.0009774852639027,0.00097749639300004,-0.0010534265407894,0.0010534367458164,-0.0010534265407899,0.0010534367458208,0.40900439415344,120135,2834,0.0062710642239615,0.0062710642239588,0.0038403836572221,34.797782574141,0.00019358226059313,0.00019358226059313,0.00019358226059313,2525882.3219729,0.016517712114167
13919200,0.99714927430014,0.016327583532048,0.0058856012893797,0.0058856012893772,0.0045563809532909,-0.0015090163896881,0.0015090163896901,1.2084336714161e-15,1.43125039393e-15,1.8492670355732e-15,1.3016072956141e-15,-0.0015917348558862,0.0015917348558901,-0.0015917348819273,0.0015917348819294,-0.0015917348340579,0.0015917348340605,-0.0015917349037562,0.0015917349037537,-0.0013408739356593,0.0013408739356581,-0.0013408748852617,0.0013408748852717,-8.5497976330805e-15,-7.7008869858358e-15,4.0681071768988e-09,-4.0681388196332e-09,-0.001509016389698,0.0015090163896789,-0.0015917334554837,0.0015917361865482,-0.0015917362823394,0.0015917335512448,-0.001591733455481,0.0015917361865466,-0.0015917362823394,0.0015917335512455,-0.0013408699939874,0.0013408779383037,-0.0013408788269798,0.001340870882602,-0.0015145803681808,0.0015145776218724,-0.0015145803681843,0.0015145776218731,3.566174259543e-09,3.566174431319e-09,-0.00092017606203758,0.00092018358219049,-6.272354075065e-10,7.6818635562385e-09,-0.00097460896087076,0.00097461394295141,-0.00097460616449815,0.00097461673931857,-0.0009746089608686,0.00097461394295371,-0.00097460616450004,0.00097461673931503,-0.001051056732696,0.0010510664107068,-0.0010510567326965,0.0010510664107112,0.40047476240274,120135,2834,0.0062674872179422,0.0062674872179395,0.0038285180679812,33.830418704002,0.00018584334963201,0.00018584334963201,0.00018584334963201,2517694.9929226,0.016498378761732
14419200,0.99775016496934,0.016333184401145,0.00588767563366,0.0058876756336575,0.0045578331338276,-0.0015074873922139,0.001507487392216,1.21261001442e-15,1.4384854670211e-15,1.8472965075362e-15,1.2937840051985e-15,-0.0015903647495637,0.0015903647495676,-0.0015903647350567,0.0015903647350587,-0.0015903647275606,0.0015903647275632,-0.0015903647570603,0.0015903647570578,-0.0013388923925563,0.0013388923925551,-0.0013388933220221,0.001338893322032,-8.5443272119629e-15,-7.6903711076401e-15,4.1858449199299e-09,-4.1858765546571e-09,-0.0015074873922238,0.0015074873922047,-0.0015903633086503,0.0015903661191304,-0.0015903661759796,0.0015903633654695,-0.0015903633086477,0.0015903661191289,-0.0015903661759796,0.0015903633654701,-0.0013388883346056,0.0013388965093081,-0.0013388973800192,0.001338889205255,-0.0015131571529444,0.0015131543278209,-0.001513157152948,0.0015131543278216,3.7681718052078e-09,3.7681719737857e-09,-0.00091694193189851,0.0009169499545845,-5.4558132080633e-10,8.001452860387e-09,-0.00097143247631498,0.00097143781974029,-0.00097142960035715,0.00097144069569262,-0.0009714324763128,0.00097143781974258,-0.00097142960035903,0.00097144069568909,-0.0010482205975623,0.0010482307763054,-0.0010482205975628,0.0010482307763097,0.38210045494667,120135,2834,0.0062611544490909,0.0062611544490883,0.0038151044211229,32.644566514037,0.00017635653211229,0.00017635653211229,0.00017635653211229,2511391.6226285,0.016471869963443
14919200,0.99818118194499,0.016337358332663,0.0058892181214805,0.005889218121478,0.0045589220897048,-0.0015038579847629,0.0015038579847649,1.2310212166763e-15,1.4558966998258e-15,1.8681488116891e-15,1.3198714435393e-15,-0.0015869717638394,0.0015869717638433,-0.0015869715899423,0.0015869715899444,-0.001586971740519,0.0015869717405216,-0.0015869716132633,0.0015869716132608,-0.0013347693026435,0.0013347693026424,-0.0013347701551355,0.0013347701551455,-8.5499152765454e-15,-7.7011053270516e-15,4.4151059143416e-09,-4.4151375996616e-09,-0.0015038579847728,0.0015038579847537,-0.0015869702370295,0.0015869732072745,-0.0015869731167618,0.0015869701464868,-0.0015869702370269,0.001586973207273,-0.0015869731167618,0.0015869701464874,-0.0013347650126863,0.0013347736341027,-0.0013347744451392,0.0013347658236612,-0.0015095797574164,0.0015095767770816,-0.00150957975742,0.0015095767770823,4.5334253486869e-09,4.5334255187858e-09,-0.00091251118205376,0.00091252111915977,-2.721508725953e-11,8.9925445467457e-09,-0.0009665741715983,0.00096658103750179,-0.0009665711359032,0.00096658407319139,-0.00096657417159613,0.00096658103750407,-0.00096657113590513,0.00096658407318785,-0.0010442343443059,0.0010442462783386,-0.0010442343443064,0.0010442462783429,0.39678962402156,120135,2834,0.0062461279065717,0.006246127906569,0.0037967196961968,30.582526236271,0.00015986020989017,0.00015986020989017,0.00015986020989017,2517521.2982568,0.016422634570579
15419200,0.99847488382106,0.016340848869063,0.0058905014891171,0.0058905014891146,0.0045598458908312,-0.0014982814934305,0.0014982814934325,1.1804933485032e-15,1.4176625737344e-15,1.8690311376758e-15,1.2706376534801e-15,-0.0015812161701786,0.0015812161701825,-0.0015812157438767,0.0015812157438788,-0.001581216144992,0.0015812161449945,-0.0015812157690639,0.0015812157690614,-0.0013291367859746,0.0013291367859733,-0.0013291375043066,0.0013291375043166,-8.6065017831606e-15,-7.7080142382318e-15,4.8193643276907e-09,-4.819396080813e-09,-0.0014982814934404,0.0014982814934212,-0.001581214494976,0.001581217744734,-0.0015812174190888,0.0015812141693008,-0.0015812144949733,0.0015812177447324,-0.0015812174190888,0.0015812141693015,-0.0013291320890298,0.0013291414987207,-0.0013291422012979,0.0013291327915453,-0.001504193204356,0.0015041899510305,-0.0015041932043595,0.0015041899510313,5.7673905872842e-09,5.7673907447599e-09,-0.00090367805594678,0.00090369108529957,7.7674673412634e-10,1.0625795846495e-08,-0.00095907818921496,0.00095908745104212,-0.00095907487388056,0.00095909076637114,-0.00095907818921281,0.0009590874510444,-0.00095907487388241,0.00095909076636757,-0.001035551226439,0.001035566017404,-0.0010355512264394,0.0010355660174085,0.48651353790675,120135,2834,0.0062230266369393,0.0062230266369366,0.0037600841795185,27.076094704376,0.00013180875763501,0.00013180875763501,0.00013180875763501,2499848.0891269,0.016338443091632
15919200,0.9987005362217,0.016344135582758,0.0058917064665167,0.0058917064665141,0.0045607226497268,-0.0014977068781032,0.0014977068781053,1.2111982928412e-15,1.4504262787081e-15,1.8525904634565e-15,1.3087541361066e-15,-0.0015798077222891,0.0015798077222931,-0.0015798076144818,0.0015798076144838,-0.0015798077010369,0.0015798077010395,-0.0015798076357346,0.0015798076357322,-0.0013291407560848,0.0013291407560836,-0.0013291416209574,0.0013291416209674,-8.552091680646e-15,-7.7090312682835e-15,4.8760667572079e-09,-4.8760984719818e-09,-0.0014977068781131,0.001497706878094,-0.0015798060564448,0.0015798093232049,-0.0015798092803358,0.0015798060135457,-0.0015798060564421,0.0015798093232033,-0.0015798092803358,0.0015798060135463,-0.0013291360249461,0.0013291455533607,-0.0013291463521427,0.0013291368236663,-0.0015039610245207,0.0015039577404391,-0.0015039610245242,0.0015039577404399,4.3029980932785e-09,4.3029982467984e-09,-0.00089484373659327,0.00089485308627159,-6.9460816934428e-10,9.2305120253996e-09,-0.00095482115798287,0.00095482713781103,-0.00095481782367361,0.00095483047211471,-0.0009548211579807,0.00095482713781335,-0.00095481782367552,0.00095483047211122,-0.0010264895725592,0.0010265013310519,-0.0010264895725598,0.0010265013310563,0.59571470761932,120135,2834,0.0062206136581921,0.0062206136581895,0.0037234729724795,25.356673867963,0.00011805339094371,0.00011805339094371,0.00011805339094371,2423227.1350177,0.016296340575954
16419200,0.9988836188299,0.016346381880824,0.0058925346546612,0.0058925346546587,0.0045613125715037,-0.0014985107785076,0.0014985107785097,1.1973751857159e-15,1.4423677013627e-15,1.8585020475676e-15,1.2790785720864e-15,-0.0015800587030786,0.0015800587030826,-0.0015800587299465,0.0015800587299486,-0.0015800586832349,0.0015800586832374,-0.001580058749791,0.0015800587497886,-0.0013299869876813,0.0013299869876802,-0.0013299879100699,0.0013299879100798,-8.5253866141145e-15,-7.6485257063009e-15,4.8161169687203e-09,-4.8161483241768e-09,-0.0014985107785175,0.0014985107784985,-0.001580057067583,0.0015800602865729,-0.0015800603654515,0.0015800571464321,-0.0015800570675804,0.0015800602865714,-0.0015800603654515,0.0015800571464328,-0.0013299823233491,0.0013299917374565,-0.0013299925744482,0.0013299831602796,-0.0015050258257736,0.0015050225846037,-0.0015050258257772,0.0015050225846045,3.6351886103335e-09,3.6351887559788e-09,-0.00088603187975143,0.00088603957483313,-1.2841583089922e-09,8.5075075067796e-09,-0.00095050521943038,0.00095050976868031,-0.00095050193182919,0.00095051305627601,-0.00095050521942826,0.00095050976868255,-0.00095050193183109,0.00095051305627247,-0.0010179356340875,0.0010179459605227,-0.0010179356340881,0.001017945960527,0.50210013400473,120135,2834,0.0062239071917411,0.0062239071917386,0.0036869695565534,24.413557053003,0.00011050845642402,0.00011050845642402,0.00011050845642402,2340985.2684355,0.016265947007894
16919200,0.99903576876716,0.016348810165437,0.0058934211022937,0.0058934211022911,0.0045619679608518,-0.0014954295567415,0.0014954295567435,1.2061984455831e-15,1.4497792396512e-15,1.8780308627404e-15,1.2894017861311e-15,-0.0015786542507511,0.0015786542507551,-0.0015786543192686,0.0015786543192706,-0.0015786542312649,0.0015786542312675,-0.0015786543387553,0.0015786543387529,-0.0013243237501879,0.0013243237501867,-0.0013243247167413,0.0013243247167511,-8.5697382003805e-15,-7.6794557701403e-15,4.7326316555118e-09,-4.7326632594669e-09,-0.0014954295567513,0.0014954295567322,-0.0015786526458093,0.0015786558073894,-0.0015786559242197,0.0015786527626098,-0.0015786526458067,0.0015786558073878,-0.0015786559242198,0.0015786527626105,-0.0013243191708186,0.0013243284218899,-0.0013243292961567,0.0013243200450239,-0.0015017627346976,0.0015017595494907,-0.001501762734701,0.0015017595494915,3.4111817318973e-09,3.4111818807939e-09,-0.00088603640798862,0.00088604352917009,-1.4187691748256e-09,8.2012997348933e-09,-0.00094543237422125,0.00094543655494515,-0.00094542914479222,0.00094543978436873,-0.00094543237421909,0.00094543655494744,-0.00094542914479408,0.0009454397843652,-0.0010200578603742,0.0010200676554728,-0.0010200578603747,0.001020067655477,0.65164127745866,120135,2834,0.0062111808121356,0.0062111808121329,0.0036869482185345,23.780779109471,0.00010544623287576,0.00010544623287576,0.00010544623287576,2397662.0873133,0.016240044368676
17419200,0.99915513389408,0.016350525485636,0.0058940515927966,0.005894051592794,0.0045624223000455,-0.0014956668970392,0.0014956668970412,1.190963616879e-15,1.423250638317e-15,1.8268559555104e-15,1.2359916530681e-15,-0.0015776801021354,0.0015776801021392,-0.0015776799685103,0.0015776799685124,-0.0015776800806484,0.0015776800806508,-0.0015776799899978,0.0015776799899953,-0.0013254582420054,0.0013254582420044,-0.001325459073799,0.001325459073809,-8.5507387807997e-15,-7.6612174141661e-15,4.7773267773316e-09,-4.7773585803166e-09,-0.0014956668970491,0.00149566689703,-0.0015776784673754,0.0015776816696218,-0.0015776816032797,0.0015776784010031,-0.0015776784673726,0.0015776816696204,-0.0015776816032797,0.0015776784010038,-0.001325453606762,0.001325462941448,-0.0013254637090888,0.0013254543743412,-0.0015026594310578,0.0015026562126926,-0.0015026594310616,0.0015026562126934,4.3405924521374e-09,4.3405926093165e-09,-0.00087488314621355,0.00087489264904643,-5.6152920637408e-10,9.1688216269989e-09,-0.00094065287319746,0.00094065897233709,-0.00094064960328848,0.00094066224224101,-0.0009406528731952,0.00094065897233949,-0.00094064960329054,0.00094066224223744,-0.0010082728969,0.0010082846935365,-0.0010082728969005,0.001008284693541,0.58772740813402,120135,2834,0.0062121162744303,0.0062121162744278,0.0036407453599075,21.985675047135,9.1085400377082e-05,9.1085400377082e-05,9.1085400377082e-05,2288565.06753,0.016195010656743
17919200,0.99924633148506,0.016351621757185,0.0058944555446477,0.0058944555446452,0.0045627106678922,-0.0014897229589881,0.0014897229589901,1.2044337936097e-15,1.4376619627668e-15,1.859472606153e-15,1.2953133702422e-15,-0.0015731163508005,0.0015731163508044,-0.0015731160736547,0.0015731160736567,-0.0015731163280817,0.0015731163280842,-0.0015731160963741,0.0015731160963716,-0.0013171621037534,0.0013171621037522,-0.0013171628875487,0.0013171628875587,-8.5800320035589e-15,-7.7174478310162e-15,4.9367047998733e-09,-4.9367364870468e-09,-0.001489722958998,0.0014897229589789,-0.001573114654016,0.0015731179691627,-0.0015731177704486,0.0015731144552717,-0.0015731146540134,0.0015731179691612,-0.0015731177704487,0.0015731144552724,-0.0013171573055419,0.0013171669501351,-0.0013171676858067,0.0013171580411518,-0.0014966344223883,0.0014966310952371,-0.0014966344223918,0.0014966310952379,4.9714263781035e-09,4.9714265375965e-09,-0.00086958373691435,0.00086959482744477,-1.0616024786259e-10,9.9557118690128e-09,-0.000931714331801,0.00093172175949343,-0.00093171094961959,0.00093172514166909,-0.00093171433179877,0.00093172175949574,-0.00093171094962157,0.00093172514166561,-0.0010049975278997,0.0010050107513349,-0.0010049975279002,0.0010050107513392,0.4915601615792,120135,2834,0.0061875246118115,0.006187524611809,0.0036187303160587,19.506539266479,7.1252314131832e-05,7.1252314131832e-05,7.1252314131832e-05,2324957.1460489,0.01612265111493
18419200,0.99931882176879,0.016352533488716,0.0058947905825792,0.0058947905825766,0.0045629523235604,-0.0014840362059881,0.0014840362059901,1.251197070906e-15,1.4826605880897e-15,1.853178680781e-15,1.2461384019154e-15,-0.0015686721050048,0.0015686721050087,-0.0015686718979393,0.0015686718979414,-0.0015686720831306,0.0015686720831332,-0.0015686719198139,0.0015686719198114,-0.0013097247356844,0.0013097247356832,-0.0013097255868321,0.0013097255868421,-8.6175602688609e-15,-7.7112357620591e-15,5.0218778032547e-09,-5.0219095748707e-09,-0.001484036205998,0.0014840362059788,-0.0015686703861998,0.0015686737534659,-0.0015686736167537,0.0015686702494573,-0.0015686703861972,0.0015686737534644,-0.0015686736167537,0.001568670249458,-0.0013097198592905,0.0013097296726567,-0.0013097304632724,0.0013097206498447,-0.0014908891014589,0.0014908857189987,-0.0014908891014625,0.0014908857189996,4.6639389584009e-09,4.6639391205672e-09,-0.00086835213974002,0.00086836241139808,-4.8742696539667e-10,9.7367522774015e-09,-0.00092562058045144,0.00092562734836765,-0.0009256171458507,0.00092563078296297,-0.00092562058044923,0.00092562734836995,-0.0009256171458525,0.00092563078295943,-0.0010051077860209,0.0010051204020843,-0.0010051077860215,0.0010051204020887,0.51421839069127,120135,2834,0.0061640086210986,0.006164008621096,0.0036135642471703,17.482598154622,5.5060785236974e-05,5.5060785236974e-05,5.5060785236974e-05,2388600.4665134,0.016069601609038
18919200,0.99938207719548,0.016353442978901,0.0058951242089569,0.0058951242089543,0.0045631945609901,-0.0014837630454919,0.001483763045494,1.2417855937143e-15,1.472719715306e-15,1.8678547030269e-15,1.2637849216499e-15,-0.001568137188142,0.001568137188146,-0.0015681369837412,0.0015681369837433,-0.0015681371662999,0.0015681371663024,-0.0015681370055836,0.0015681370055812,-0.0013095934448973,0.0013095934448962,-0.0013095942962525,0.0013095942962626,-8.6557943949522e-15,-7.7506420720101e-15,5.0287033482517e-09,-5.0287351083241e-09,-0.0014837630455019,0.0014837630454825,-0.0015681354673339,0.0015681388388979,-0.0015681387045591,0.0015681353329643,-0.0015681354673312,0.0015681388388964,-0.0015681387045591,0.001568135332965,-0.0013095885618651,0.0013095983886272,-0.0013095991793315,0.0013095893525076,-0.0014909496146262,0.0014909462276821,-0.0014909496146298,0.001490946227683,3.7790856813033e-09,3.7790858430216e-09,-0.00086605841269224,0.00086606637657849,-1.344087469771e-09,8.8472697050424e-09,-0.00092434537183203,0.00092435009871431,-0.00092434194909619,0.00092435352144427,-0.00092434537182984,0.00092435009871661,-0.00092434194909806,0.00092435352144076,-0.0010028197775082,0.0010028303872124,-0.0010028197775088,0.0010028303872168,0.5877987766322,120135,2834,0.0061628691117199,0.0061628691117172,0.003604053052733,16.876008879101,5.0208071032806e-05,5.0208071032806e-05,5.0208071032806e-05,2353683.8212968,0.016057626457957
19419200,0.99944173047066,0.016354401775803,0.0058954752037952,0.0058954752037926,0.0045634513682152,-0.0014871306421881,0.0014871306421902,1.2488442016081e-15,1.4884839396021e-15,1.8686782072811e-15,1.298048580801e-15,-0.0015705854356413,0.0015705854356454,-0.001570585726128,0.0015705857261302,-0.0015705854185359,0.0015705854185385,-0.0015705857432339,0.0015705857432315,-0.0013139610379772,0.0013139610379762,-0.0013139621181712,0.0013139621181811,-8.5268571574257e-15,-7.6593916427363e-15,4.7179690142836e-09,-4.7180006048642e-09,-0.001487130642198,0.0014871306421789,-0.0015705838528513,0.0015705869917401,-0.0015705873089273,0.0015705841700089,-0.0015705838528487,0.0015705869917386,-0.0015705873089274,0.0015705841700096,-0.0013139564858639,0.0013139657135411,-0.0013139666703309,0.0013139574425923,-0.0014945563803423,0.0014945532095968,-0.001494556380346,0.0014945532095976,2.3769689452268e-09,2.3769690979904e-09,-0.0008631525653177,0.00086315706778097,-2.4080122767014e-09,7.1602240115126e-09,-0.00092553007263525,0.00092553199984346,-0.00092552686438389,0.00092553520808929,-0.00092553007263303,0.0009255319998457,-0.00092552686438576,0.00092553520808585,-0.00099905088543601,0.00099905849472319,-0.00099905088543655,0.00099905849472748,0.65664642788028,120135,2834,0.006176785218255,0.0061767852182523,0.0035920330126986,17.544789883095,5.5558319064759e-05,5.5558319064759e-05,5.5558319064759e-05,2296402.9020902,0.016073701571821
19919200,0.99949925070014,0.016355302308975,0.0058958050965406,0.0058958050965381,0.0045636921158963,-0.0014907947702266,0.0014907947702286,1.2187274745946e-15,1.4660140378069e-15,1.8695899441341e-15,1.2899900034556e-15,-0.0015739503777304,0.0015739503777344,-0.0015739507519701,0.0015739507519722,-0.0015739503608309,0.0015739503608335,-0.0015739507688702,0.0015739507688677,-0.001317591425613,0.0013175914256118,-0.0013175925472436,0.0013175925472536,-8.5382685735207e-15,-7.6579143785826e-15,4.443318722559e-09,-4.4433503298794e-09,-0.0014907947702365,0.0014907947702174,-0.0015739488881816,0.0015739518426031,-0.0015739522415282,0.0015739492870769,-0.001573948888179,0.0015739518426016,-0.0015739522415282,0.0015739492870775,-0.0013175871440221,0.0013175958341201,-0.0013175968288808,0.0013175881387215,-0.0014983734797541,0.0014983704928011,-0.0014983734797576,0.0014983704928018,1.9396808322982e-09,1.9396809759012e-09,-0.00086106012162084,0.00086106354139613,-2.5668151605147e-09,6.4483924117441e-09,-0.00092604956642104,0.00092605073151431,-0.00092604654269144,0.00092605375523851,-0.00092604956641889,0.00092605073151662,-0.00092604654269334,0.00092605375523498,-0.00099715386268087,0.00099716037543067,-0.00099715386268142,0.00099716037543506,0.63949909152815,120135,2834,0.0061919368542273,0.0061919368542247,0.0035833930147415,18.680112935336,6.4640903482686e-05,6.4640903482686e-05,6.4640903482686e-05,2241855.396203,0.016095718636504
20419200,0.99955061778628,0.016356170745116,0.0058961222091619,0.0058961222091593,0.0045639263267953,-0.0014903359742419,0.001490335974244,1.2138452708014e-15,1.4617200513382e-15,1.8681488116891e-15,1.2891664992013e-15,-0.0015737547606784,0.0015737547606824,-0.0015737551350282,0.0015737551350303,-0.0015737547437652,0.0015737547437678,-0.0015737551519419,0.0015737551519395,-0.0013167907938977,0.0013167907938966,-0.0013167919148742,0.0013167919148842,-8.5651501052495e-15,-7.6849950080895e-15,4.4203336168898e-09,-4.4203653076866e-09,-0.0014903359742519,0.0014903359742327,-0.0015737532787907,0.0015737562179027,-0.0015737566169254,0.0015737536777833,-0.001573753278788,0.0015737562179012,-0.0015737566169254,0.001573753677784,-0.0013167865347476,0.0013167951795793,-0.0013167961740709,0.0013167875291776,-0.0014978099264545,0.0014978069546556,-0.001497809926458,0.0014978069546564,2.7032935532838e-09,2.7032936975567e-09,-0.00085973689302612,0.00085974229952945,-1.808858221873e-09,7.1982343784249e-09,-0.00092409099814805,0.00092409391862666,-0.00092408797637811,0.00092409694039109,-0.00092409099814591,0.00092409391862897,-0.00092408797638002,0.00092409694038758,-0.00099615938008807,0.00099616760838409,-0.00099615938008859,0.00099616760838845,0.69004788769246,120135,2834,0.0061900396823748,0.0061900396823722,0.0035779018912289,18.601988088326,6.4015904706612e-05,6.4015904706612e-05,6.4015904706612e-05,2241457.2933688,0.016086279787655
20919200,0.99959334520178,0.016356845200202,0.0058963691447148,0.0058963691447123,0.0045641069107745,-0.0014889162256491,0.0014889162256511,1.0710849261496e-15,1.2965486266236e-15,1.9342938498271e-15,1.1439650526529e-15,-0.0015725282763017,0.0015725282763061,-0.0015725283567388,0.0015725283567411,-0.0015725282566702,0.0015725282566728,-0.0015725283763713,0.0015725283763692,-0.0013145977040195,0.0013145977040186,-0.0013145986346622,0.0013145986346715,-8.6823229962864e-15,-7.6247112339086e-15,4.4611229425885e-09,-4.461154634608e-09,-0.0014889162256588,0.00148891622564,-0.0015725267607485,0.0015725297425397,-0.0015725298723015,0.0015725268904821,-0.0015725267607461,0.0015725297425373,-0.0015725298723015,0.001572526890483,-0.0013145933895749,0.0013146021088814,-0.0013146029491532,0.0013145942297858,-0.0014966848597575,0.0014966818560926,-0.0014966848597606,0.0014966818560933,3.887728058061e-09,3.8877282338652e-09,-0.00085369182172447,0.00085370027377298,-6.9026992947748e-10,8.4069663578897e-09,-0.00091908615111016,0.00091909168033269,-0.00091908309535313,0.00091909473608369,-0.00091908615110735,0.00091909168033484,-0.00091908309535521,0.00091909473608022,-0.00099088585598864,0.0009908966605837,-0.00099088585598835,0.00099089666058747,0.64466974006306,120135,2834,0.0061841492154175,0.0061841492154151,0.0035528450551027,17.279467781949,5.343574225559e-05,5.343574225559e-05,5.343574225559e-05,2200992.4877139,0.016048853791286
21419200,0.99962763787226,0.016357383586885,0.005896566030163,0.0058965660301604,0.0045642515265617,-0.0014845113112235,0.0014845113112254,1.1529647777175e-15,1.3837812558443e-15,1.8934715675081e-15,1.1454061850979e-15,-0.0015691021576852,0.001569102157689,-0.0015691019317132,0.0015691019317153,-0.0015691021347554,0.0015691021347578,-0.0015691019546436,0.001569101954641,-0.0013081804054302,0.0013081804054289,-0.0013081812313227,0.0013081812313326,-8.634500927806e-15,-7.5873207171558e-15,4.6272657364571e-09,-4.6272973678961e-09,-0.0014845113112333,0.0014845113112142,-0.0015691005624832,0.0015691036724773,-0.0015691035269246,0.0015691004169006,-0.0015691005624805,0.0015691036724757,-0.0015691035269245,0.0015691004169013,-0.0013081759093966,0.001308184947415,-0.0013081857274025,0.0013081766893227,-0.0014924217288547,0.0014924186077709,-0.0014924217288582,0.0014924186077719,4.6871395949791e-09,4.6871397566272e-09,-0.00084916156293769,0.0008491719383922,-8.2993479856159e-11,9.3607298074975e-09,-0.00091210759979168,0.00091211464043733,-0.0009121044232173,0.0009121178170062,-0.00091210759978949,0.00091211464043966,-0.00091210442321915,0.00091211781700267,-0.000987955382281,0.00098796780497797,-0.00098795538228147,0.0009879678049824,0.64095610021346,120135,2834,0.0061659239948272,0.0061659239948245,0.0035340322874621,15.234642706552,3.7077141652419e-05,3.7077141652419e-05,3.7077141652419e-05,2229676.5974816,0.015992699352466
21919200,0.99965679702454,0.016357828481792,0.0058967289576464,0.0058967289576438,0.0045643705665014,-0.0014823811375764,0.0014823811375784,1.1956105337424e-15,1.4256623293474e-15,1.9069417442387e-15,1.2001692180072e-15,-0.001567145643079,0.0015671456430829,-0.0015671455656213,0.0015671455656234,-0.001567145621928,0.0015671456219305,-0.0015671455867729,0.0015671455867704,-0.001305575299746,0.0013055752997448,-0.001305576204839,0.0013055762048489,-8.5895611242155e-15,-7.5813819624594e-15,4.6762750106807e-09,-4.6763065693126e-09,-0.0014823811375863,0.0014823811375672,-0.0015671440444885,0.0015671471776185,-0.0015671471642213,0.0015671440310614,-0.0015671440444858,0.001567147177617,-0.0015671471642212,0.0015671440310621,-0.0013055707654477,0.0013055799029804,-0.0013055807391835,0.0013055716015896,-0.0014904700460983,0.001490466895508,-0.0014904700461017,0.0014904668955089,4.0343210156105e-09,4.0343211781985e-09,-0.00084574442450386,0.00084575313288312,-7.621961820916e-10,8.7627522748007e-09,-0.00090842483902804,0.00090843042550395,-0.00090842163834663,0.00090843362617989,-0.00090842483902588,0.00090843042550623,-0.00090842163834852,0.00090843362617632,-0.00098490922292243,0.00098492029983561,-0.00098490922292303,0.00098492029984005,0.62311101531201,120135,2834,0.006157103466865,0.0061571034668624,0.0035198449981324,13.998045017574,2.7184360140593e-05,2.7184360140593e-05,2.7184360140593e-05,2224757.9388295,0.015960362389694
22419200,0.99968508192429,0.016358279478103,0.0058968938779643,0.0058968938779617,0.0045644917221774,-0.0014838516265152,0.0014838516265172,1.1873754911997e-15,1.4182507910589e-15,1.9013242687899e-15,1.1964340379967e-15,-0.0015686904042571,0.0015686904042611,-0.0015686903254054,0.0015686903254075,-0.0015686903830974,0.0015686903831,-0.0015686903465659,0.0015686903465634,-0.0013069161714109,0.0013069161714097,-0.0013069170789667,0.0013069170789766,-8.4982697954559e-15,-7.4897568318567e-15,4.6795447196783e-09,-4.6795759947814e-09,-0.0014838516265249,0.0014838516265061,-0.0015686888045265,0.0015686919398775,-0.0015686919251453,0.0015686887897649,-0.0015686888045239,0.0015686919398761,-0.0015686919251453,0.0015686887897657,-0.0013069116339482,0.0013069207778994,-0.0013069216164753,0.0013069124724634,-0.0014919273546701,0.0014919242019144,-0.0014919273546736,0.0014919242019153,2.7355737780515e-09,2.7355739407409e-09,-0.00084725417769596,0.00084725949668228,-2.0136242343824e-09,7.4503711923478e-09,-0.00090946348071438,0.00090946611004007,-0.0009094603017702,0.00090946928897903,-0.00090946348071225,0.00090946611004239,-0.00090946030177219,0.00090946928897556,-0.00098650687096417,0.0009865150019704,-0.00098650687096454,0.00098651500197466,0.65096373206224,120135,2834,0.0061631962946055,0.0061631962946029,0.0035261006687114,14.848690539088,3.3989524312706e-05,3.3989524312706e-05,3.3989524312706e-05,2225837.5820551,0.015979096321779
22919200,0.99971183343105,0.016358664168847,0.0058970349762464,0.0058970349762438,0.0045645942163569,-0.0014856551471807,0.0014856551471828,1.2202568396382e-15,1.4507203873703e-15,1.9059417747871e-15,1.2283742387161e-15,-0.0015704280255812,0.0015704280255852,-0.0015704282751127,0.0015704282751148,-0.0015704280075467,0.0015704280075492,-0.0015704282931479,0.0015704282931454,-0.0013085503561007,0.0013085503560996,-0.001308551420345,0.001308551420355,-8.5585032494829e-15,-7.5802656707341e-15,4.4649765567232e-09,-4.4650080698607e-09,-0.0014856551471906,0.0014856551471716,-0.0015704265201993,0.00157042949567,-0.0015704297805039,0.0015704268050035,-0.0015704265201967,0.0015704294956686,-0.001570429780504,0.0015704268050042,-0.0013085460466109,0.0013085547764488,-0.0013085557298812,0.001308546999982,-0.0014939588373698,0.001493955833406,-0.0014939588373732,0.0014939558334069,2.5145947773132e-09,2.514594939586e-09,-0.0008464973355925,0.0008465022085761,-2.0289618666665e-09,7.0411166062356e-09,-0.00090965681238434,0.00090965922196732,-0.00090965376857579,0.00090966226577052,-0.0009096568123822,0.00090965922196959,-0.00090965376857766,0.00090966226576695,-0.00098591804209656,0.00098592578060008,-0.00098591804209716,0.00098592578060448,0.58748017292925,120135,2834,0.0061706560033248,0.0061706560033223,0.0035229782219799,15.35661418552,3.805291348416e-05,3.805291348416e-05,3.805291348416e-05,2197439.4295281,0.015991085005189
23419200,0.99973682370028,0.016359034240887,0.0058971703653832,0.0058971703653807,0.0045646935101233,-0.001485227881711,0.001485227881713,1.1403769269736e-15,1.3743109569201e-15,1.8507375788844e-15,1.2249037565016e-15,-0.0015707410644282,0.0015707410644322,-0.0015707412807046,0.0015707412807066,-0.0015707410456616,0.0015707410456641,-0.0015707412994718,0.0015707412994692,-0.0013070762487092,0.001307076248708,-0.0013070773016259,0.0013070773016357,-8.5714440306215e-15,-7.6443246053218e-15,4.2999030906004e-09,-4.299934741357e-09,-0.0014852278817209,0.0014852278817018,-0.0015707396087117,0.0015707424782558,-0.0015707427364305,0.0015707398668565,-0.0015707396087091,0.0015707424782542,-0.0015707427364305,0.0015707398668572,-0.0013070720974088,0.0013070805021336,-0.0013070814529726,0.0013070730481861,-0.0014934116527808,0.0014934087573413,-0.0014934116527843,0.0014934087573421,2.6516025312428e-09,2.651602691152e-09,-0.00084877840364357,0.00084878362474946,-1.7353393888229e-09,7.0102335487212e-09,-0.000909109266111,0.00090911209946457,-0.00090910632938266,0.00090911503618738,-0.00090910926610884,0.00090911209946686,-0.00090910632938461,0.00090911503618392,-0.00098907077618989,0.00098907869396483,-0.00098907077619035,0.00098907869396915,0.60459639632209,120135,2834,0.0061689059207512,0.0061689059207485,0.003532421170343,15.705180878928,4.0841447031421e-05,4.0841447031421e-05,4.0841447031421e-05,2230106.2796718,0.015997115505105
23919200,0.9997614507595,0.016359464117535,0.0058973271594662,0.0058973271594637,0.0045648097986049,-0.0014883800750004,0.0014883800750024,1.214845240253e-15,1.4452499662527e-15,1.8840012685839e-15,1.2570498332846e-15,-0.0015735770449225,0.0015735770449264,-0.0015735774379338,0.0015735774379358,-0.0015735770275995,0.001573577027602,-0.0015735774552574,0.0015735774552549,-0.0013106084494936,0.0013106084494924,-0.0013106095888245,0.0013106095888344,-8.5333863697275e-15,-7.6066118902318e-15,4.0858842316592e-09,-4.0859157224709e-09,-0.0014883800750102,0.0014883800749912,-0.0015735756709752,0.0015735783901217,-0.0015735788118904,0.0015735760927141,-0.0015735756709726,0.0015735783901202,-0.0015735788118904,0.0015735760927148,-0.0013106045154942,0.0013106125037283,-0.0013106135228701,0.0013106055345748,-0.0014967311800125,0.0014967284299062,-0.0014967311800159,0.001496728429907,1.8136033631101e-09,1.813603526216e-09,-0.00085043478075025,0.00085043789849341,-2.3402438957436e-09,5.9618993361853e-09,-0.00091191780208729,0.0009119189458877,-0.00091191501545825,0.00091192173251128,-0.0009119178020851,0.00091191894588998,-0.00091191501546012,0.00091192173250775,-0.0009903542528999,0.00099036026828734,-0.00099035425290046,0.00099036026829174,0.71228945632067,120135,2834,0.006181951194124,0.0061819511941213,0.0035393057931908,17.002473572825,5.1219788582601e-05,5.1219788582601e-05,5.1219788582601e-05,2206381.7196447,0.016030622077292
24419200,0.99978493598113,0.016359854743956,0.0058974699270964,0.0058974699270939,0.0045649148897656,-0.0014914909465611,0.0014914909465631,1.1990810159569e-15,1.4319562547194e-15,1.8733545350108e-15,1.2478736430227e-15,-0.0015763982074596,0.0015763982074635,-0.0015763985997686,0.0015763985997706,-0.0015763981900341,0.0015763981900367,-0.0015763986171952,0.0015763986171926,-0.0013139226910485,0.0013139226910474,-0.0013139238270668,0.0013139238270767,-8.4013904021137e-15,-7.4691899624583e-15,4.0674908907261e-09,-4.0675221314432e-09,-0.0014914909465707,0.0014914909465522,-0.0015763968388163,0.0015763995462733,-0.0015763999684209,0.0015763972609351,-0.0015763968388136,0.0015763995462719,-0.0015763999684209,0.0015763972609357,-0.0013139187746919,0.0013139267269676,-0.0013139277434693,0.0013139197911329,-0.0015000460880409,0.0015000433502662,-0.0015000460880443,0.0015000433502669,2.0517156968095e-09,2.051715859283e-09,-0.00084798737062115,0.00084799112083977,-2.0956455263647e-09,6.1851297902806e-09,-0.00091245118548681,0.00091245288573911,-0.00091244840535207,0.00091245566586889,-0.00091245118548456,0.00091245288574135,-0.00091244840535397,0.00091245566586527,-0.00098799878498343,0.00098800533429836,-0.00098799878498393,0.00098800533430285,0.6789410524186,120135,2834,0.0061948063551959,0.0061948063551933,0.0035291999180185,17.880398297457,5.8243186379652e-05,5.8243186379652e-05,5.8243186379652e-05,2119213.9967429,0.016046485222939
24919200,0.99980668846525,0.016360178697934,0.0058975883913017,0.0058975883912992,0.0045650019153334,-0.0014924074210009,0.0014924074210029,1.190434221287e-15,1.4216624515409e-15,1.8658841749898e-15,1.2384327549647e-15,-0.0015773522134617,0.0015773522134656,-0.0015773525578747,0.0015773525578767,-0.0015773521956052,0.0015773521956077,-0.0015773525757319,0.0015773525757293,-0.0013146383236017,0.0013146383236005,-0.0013146394126648,0.0013146394126747,-8.559562040667e-15,-7.6322178979675e-15,4.0556954004233e-09,-4.0557270116657e-09,-0.0014924074210108,0.0014924074209917,-0.0015773508458911,0.0015773535476196,-0.0015773539254546,0.0015773512236964,-0.0015773508458885,0.0015773535476181,-0.0015773539254546,0.001577351223697,-0.0013146344169197,0.0013146423455895,-0.0013146433193933,0.001314635390662,-0.0015009127190448,0.0015009099886482,-0.0015009127190483,0.0015009099886489,2.3922297428901e-09,2.392229904342e-09,-0.00084791241015422,0.00084791703326648,-1.751667592728e-09,6.5130655553622e-09,-0.00091211467893673,0.00091211715305228,-0.00091211190367702,0.00091211992830658,-0.00091211467893457,0.00091211715305455,-0.00091211190367889,0.00091211992830298,-0.00098797704858698,0.00098798435132877,-0.00098797704858754,0.00098798435133327,0.60789483588396,120135,2834,0.0061986031176884,0.0061986031176858,0.0035288923100321,18.351207526885,6.2009660215082e-05,6.2009660215082e-05,6.2009660215082e-05,2141425.5955544,0.016053884795792
25419200,0.99982805139231,0.016360564982753,0.005897728880088,0.0058977288800855,0.0045651072225792,-0.0014943758118021,0.0014943758118041,1.1826109308714e-15,1.3934280199658e-15,1.8546786349585e-15,1.2292565647028e-15,-0.0015801756854124,0.0015801756854164,-0.0015801761290581,0.0015801761290601,-0.0015801756679139,0.0015801756679164,-0.0015801761465573,0.0015801761465547,-0.0013151866263406,0.0013151866263394,-0.0013151877876586,0.0013151877876684,-8.5371509606042e-15,-7.6103274821458e-15,3.7529197358836e-09,-3.7529512789954e-09,-0.0014943758118119,0.0014943758117929,-0.0015801744212486,0.0015801769194227,-0.0015801773932315,0.0015801748950275,-0.0015801744212459,0.0015801769194212,-0.0015801773932315,0.0015801748950281,-0.0013151830184053,0.0013151903537721,-0.0013151913956403,0.0013151840602122,-0.0015028348814457,0.0015028323530301,-0.0015028348814492,0.0015028323530309,1.5503047703606e-09,1.5503049528361e-09,-0.00085298130437108,0.00085298377432664,-2.2715766452016e-09,5.3644650049235e-09,-0.00091401639264728,0.00091401718782084,-0.00091401382781644,0.00091401975264625,-0.00091401639264508,0.00091401718782312,-0.00091401382781839,0.00091401975264267,-0.00099417170476034,0.00099417695364544,-0.00099417170476093,0.00099417695364978,0.7372586897946,120135,2834,0.0062067780904568,0.0062067780904541,0.0035498995254021,19.917689000376,7.4541512003009e-05,7.4541512003009e-05,7.4541512003009e-05,2177455.1730073,0.016091834675088
25919200,0.99984793537627,0.016360920329986,0.0058978584755168,0.0058978584755143,0.0045652033789551,-0.0014982417380973,0.0014982417380987,6.9639049045442e-16,8.6479711045366e-16,1.7617991194227e-15,1.0968782558281e-15,-0.0015833595523556,0.0015833595523588,-0.00158335993403,0.0015833599340313,-0.0015833595341173,0.0015833595341196,-0.0015833599522701,0.0015833599522662,-0.0013196270629951,0.0013196270629932,-0.0013196281682179,0.0013196281682275,-8.2035140941579e-15,-7.2442425605499e-15,3.7103375725581e-09,-3.71036826287e-09,-0.0014982417381061,0.0014982417380881,-0.0015833582970365,0.0015833607708567,-0.0015833611893574,0.0015833587155103,-0.0015833582970325,0.0015833607708542,-0.0015833611893576,0.0015833587155103,-0.001319623492911,0.0013196307440286,-0.0013196317383468,0.0013196244871705,-0.0015071624407008,0.0015071599400197,-0.0015071624407033,0.0015071599400196,2.0896736540539e-09,2.0896738785739e-09,-0.00084981882544988,0.00084982271014181,-1.7086015973205e-09,5.860391479666e-09,-0.00091502565575208,0.0009150277106392,-0.00091502311175957,0.00091503025462402,-0.00091502565575014,0.00091502771064176,-0.00091502311176189,0.00091503025462097,-0.00099069126176948,0.00099069769860283,-0.00099069126176935,0.00099069769860631,0.72914636768882,120135,2834,0.0062227518574253,0.0062227518574219,0.0035368392324703,20.733151331152,8.1065210649215e-05,8.1065210649215e-05,8.1065210649215e-05,2083627.7719724,0.01611103877226
26419200,0.99986519794746,0.016361255785361,0.0058979803128393,0.0058979803128368,0.0045652951596849,-0.0014978704525751,0.0014978704525771,1.1804345267708e-15,1.3469000295992e-15,1.8730310154823e-15,1.229550673365e-15,-0.0015828960650361,0.00158289606504,-0.0015828961495853,0.0015828961495873,-0.0015828960434984,0.001582896043501,-0.0015828961711236,0.0015828961711211,-0.0013191632880751,0.0013191632880739,-0.00131916426201,0.0013191642620198,-8.5636207402059e-15,-7.6188971881781e-15,3.7676329066676e-09,-3.7676644548581e-09,-0.0014978704525849,0.0014978704525659,-0.0015828947664854,0.0015828972959827,-0.0015828974481454,0.0015828949186183,-0.0015828947664827,0.0015828972959812,-0.0015828974481454,0.0015828949186189,-0.0013191596425196,0.0013191669989725,-0.0013191679076118,0.0013191605510975,-0.0015066973222953,0.001506694777123,-0.0015066973222987,0.0015066947771237,3.1664698806915e-09,3.1664701065706e-09,-0.00084726663675276,0.0008472732064727,-7.2319466350239e-10,6.9823832523228e-09,-0.00091317235023583,0.00091317664730078,-0.00091316975517258,0.0009131792423585,-0.00091317235023368,0.00091317664730312,-0.00091316975517446,0.00091317924235502,-0.00098819374012126,0.00098820240688558,-0.00098819374012177,0.0009882024068898,0.79204195954471,120135,2834,0.0062212102501515,0.0062212102501489,0.0035262609756354,20.39937176882,7.8394974150561e-05,7.8394974150561e-05,7.8394974150561e-05,2088776.3390718,0.016097155963095
26919200,0.99988126849921,0.016361550168052,0.0058980874886437,0.0058980874886412,0.0045653751907667,-0.0015007523209571,0.0015007523209592,1.2376680724429e-15,1.4074275922884e-15,1.8959126694047e-15,1.2486971472769e-15,-0.0015855175584065,0.0015855175584105,-0.0015855178702121,0.0015855178702142,-0.0015855175391817,0.0015855175391842,-0.0015855178894377,0.0015855178894352,-0.0013220629747957,0.0013220629747946,-0.0013220640737413,0.001322064073751,-8.4960933913553e-15,-7.5472106143669e-15,3.6960501010739e-09,-3.6960814807368e-09,-0.001500752320967,0.001500752320948,-0.0015855163005596,0.0015855187698391,-0.0015855191280684,0.0015855166587594,-0.001585516300557,0.0015855187698376,-0.0015855191280684,0.0015855166587601,-0.001322059411289,0.0013220666318789,-0.0013220676372942,0.0013220604166433,-0.0015097986760365,0.0015097961826948,-0.00150979867604,0.0015097961826957,2.1148402635738e-09,2.1148404857807e-09,-0.00084567182560398,0.00084567573850739,-1.6735747681749e-09,5.8660064578528e-09,-0.00091361458034774,0.00091361664501633,-0.00091361204426045,0.00091361918109822,-0.00091361458034556,0.00091361664501865,-0.00091361204426235,0.00091361918109468,-0.00098660847235847,0.00098661487308353,-0.00098660847235905,0.0009866148730877,0.74688297492095,120135,2834,0.0062331267136419,0.0062331267136393,0.0035196710619888,21.285749347329,8.5485994778632e-05,8.5485994778632e-05,8.5485994778632e-05,2045685.6314921,0.016114681612335
27419200,0.99989618654762,0.016361815833525,0.0058981841284908,0.0058981841284883,0.0045654475765462,-0.0015018816339617,0.0015018816339637,1.248314806016e-15,1.4268975857288e-15,1.8973538018496e-15,1.2346387532218e-15,-0.0015874486911098,0.0015874486911138,-0.0015874490188447,0.0015874490188468,-0.0015874486718626,0.0015874486718651,-0.0015874490380927,0.0015874490380902,-0.0013218414647933,0.0013218414647921,-0.0013218425689708,0.0013218425689807,-8.5387979691127e-15,-7.5771119872057e-15,3.596545774281e-09,-3.5965772187149e-09,-0.0015018816339715,0.0015018816339526,-0.001587447466345,0.0015874498694667,-0.001587450243619,0.0015874478404676,-0.0015874474663423,0.0015874498694652,-0.0015874502436189,0.0015874478404683,-0.0013218379995996,0.0013218450252502,-0.0013218460342109,0.0013218390084991,-0.0015109174457855,0.0015109150187236,-0.001510917445789,0.0015109150187245,2.0328929213753e-09,2.0328931353925e-09,-0.00084777366758518,0.00084777737719863,-1.6553522297139e-09,5.6845390870417e-09,-0.00091332797370391,0.00091332993128482,-0.00091332550435593,0.00091333240062728,-0.00091332797370165,0.00091332993128706,-0.0009133255043578,0.00091333240062375,-0.00098982368910287,0.0009898298547541,-0.00098982368910338,0.00098982985475839,0.72588280929977,120135,2834,0.0062378183925743,0.0062378183925716,0.0035283810422725,22.24955470922,9.3196437673758e-05,9.3196437673758e-05,9.3196437673758e-05,2061228.618475,0.016133060019364
27919200,0.99990970806242,0.016362069745236,0.0058982763877296,0.005898276387727,0.0045655169697794,-0.0015029888801844,0.0015029888801864,1.2079630975565e-15,1.3883693509752e-15,1.8820895622793e-15,1.2299918363584e-15,-0.0015888683146547,0.0015888683146586,-0.0015888685850228,0.0015888685850249,-0.0015888682946783,0.0015888682946808,-0.0015888686049998,0.0015888686049973,-0.0013224035046708,0.0013224035046696,-0.0013224045810959,0.0013224045811057,-8.5239160708033e-15,-7.5708957249023e-15,3.5590200778109e-09,-3.5590515130903e-09,-0.0015029888801942,0.0015029888801752,-0.0015888670970351,0.0015888694791187,-0.0015888698026518,0.0015888674205384,-0.0015888670970324,0.0015888694791172,-0.0015888698026517,0.0015888674205391,-0.0013224000721573,0.0013224070228453,-0.0013224080136557,0.0013224010629065,-0.0015121233286208,0.0015121209252324,-0.0015121233286242,0.0015121209252332,2.2869217467106e-09,2.2869219594569e-09,-0.00084913182872196,0.00084913618318103,-1.3731406078352e-09,5.8985439694718e-09,-0.00091365256869643,0.00091365510827368,-0.00091365012088385,0.00091365755608073,-0.00091365256869424,0.000913655108276,-0.00091365012088572,0.00091365755607722,-0.00099155620561175,0.0009915628820895,-0.00099155620561233,0.00099156288209381,0.76533978020323,120135,2834,0.006242410198462,0.0062424101984594,0.003534012131086,22.917557911157,9.854046328926e-05,9.854046328926e-05,9.854046328926e-05,2063986.550603,0.016148111729242
28419200,0.99992180151339,0.016362314759547,0.0058983653186031,0.0058983653186005,0.0045655841223431,-0.0015048675376118,0.0015048675376139,1.2405503373329e-15,1.4208389472866e-15,1.8910010547452e-15,1.2581380353349e-15,-0.0015904523369391,0.0015904523369431,-0.001590452578905,0.0015904525789071,-0.0015904523166161,0.0015904523166187,-0.0015904525992286,0.0015904525992262,-0.00132451279257,0.0013245127925689,-0.0013245138534773,0.0013245138534873,-8.5455036466118e-15,-7.6118330083038e-15,3.5469171184851e-09,-3.5469486639637e-09,-0.0015048675376217,0.0015048675376027,-0.0015904511207514,0.0015904534966374,-0.0015904537951022,0.0015904514191863,-0.0015904511207488,0.0015904534966359,-0.0015904537951022,0.001590451419187,-0.0013245093696083,0.0013245162958722,-0.0013245172764855,0.0013245103501602,-0.001514178725412,0.0015141763295133,-0.0015141787254155,0.0015141763295141,2.41288691272e-09,2.4128871251899e-09,-0.00084812665398554,0.00084813132828006,-1.2398539758562e-09,6.011110085419e-09,-0.0009141991105096,0.00091420192696871,-0.00091419666890278,0.00091420436857001,-0.0009141991105074,0.00091420192697101,-0.00091419666890465,0.00091420436856648,-0.00099035728448052,0.0009903642183398,-0.00099035728448114,0.00099036421834413,0.82558911402084,120135,2834,0.0062501769680282,0.0062501769680255,0.0035298628326255,23.440666013618,0.00010272532810894,0.00010272532810894,0.00010272532810894,2033553.2800329,0.01615968397872
28919200,0.99993258036325,0.016362516816034,0.0058984387856725,0.00589843878567,0.0045656392446913,-0.0015069913959689,0.0015069913959708,1.1476708217971e-15,1.3320181312898e-15,1.8305617246547e-15,1.2156981553735e-15,-0.0015922780799828,0.0015922780799867,-0.0015922783251479,0.0015922783251498,-0.0015922780596782,0.0015922780596807,-0.0015922783454532,0.0015922783454507,-0.0013267709838281,0.0013267709838268,-0.0013267720442378,0.0013267720442476,-8.5290335615263e-15,-7.6132021071038e-15,3.5358253289961e-09,-3.5358568254055e-09,-0.0015069913959787,0.0015069913959597,-0.0015922768675881,0.0015922792359725,-0.0015922795375521,0.001592277169138,-0.0015922768675854,0.0015922792359709,-0.0015922795375521,0.0015922771691387,-0.0013267675715995,0.001326774476146,-0.0013267754565125,0.0013267685519049,-0.0015164444904468,0.0015164421020212,-0.0015164444904503,0.0015164421020221,2.3949343940073e-09,2.3949346012742e-09,-0.00084608710260821,0.0008460917343633,-1.2467108211637e-09,5.9820297087016e-09,-0.00091421038100726,0.00091421316021678,-0.00091420794674392,0.00091421559447468,-0.00091421038100512,0.00091421316021914,-0.00091420794674584,0.00091421559447118,-0.00098828864184409,0.00098829553173672,-0.00098828864184453,0.00098829553174098,0.76400561131051,120135,2834,0.006258954070895,0.0062589540708924,0.0035214313696598,23.982914855751,0.00010706331884601,0.00010706331884601,0.00010706331884601,1994307.7425166,0.016168958827736
29419200,0.99994226865398,0.01636266512175,0.0058984929012549,0.0058984929012523,0.0045656793192433,-0.0015075484935782,0.0015075484935801,1.1936105948392e-15,1.3818401386735e-15,1.8704428592546e-15,1.2416091285169e-15,-0.00159369932497,0.0015936993249738,-0.001593699617521,0.001593699617523,-0.0015936993050824,0.0015936993050849,-0.0015936996374091,0.0015936996374065,-0.0013259444899803,0.0013259444899792,-0.0013259455789388,0.0013259455789486,-8.5305041048375e-15,-7.6000851479833e-15,3.4907990467872e-09,-3.4908305543886e-09,-0.001507548493588,0.001507548493569,-0.0015936981307104,0.0015937004668663,-0.0015937008117898,0.0015936984756043,-0.0015936981307077,0.0015937004668648,-0.0015937008117898,0.0015936984756049,-0.0013259411246772,0.0013259479418169,-0.0013259489442882,0.0013259421270873,-0.0015169397763856,0.0015169374186122,-0.0015169397763891,0.001516937418613,2.1752654430135e-09,2.1752656478335e-09,-0.00084852934853523,0.00084853342460951,-1.4153368558865e-09,5.7187261625765e-09,-0.00091380873905504,0.00091381108236546,-0.00091380633722527,0.00091381348418969,-0.00091380873905291,0.00091381108236773,-0.00091380633722719,0.00091381348418621,-0.00099188591523043,0.00099189231239219,-0.00099188591523107,0.00099189231239649,0.62417410960896,120135,2834,0.0062612799575266,0.006261279957524,0.0035315466273491,24.777340611348,0.00011341872489079,0.00011341872489079,0.00011341872489079,2018757.1655081,0.016183956946221
29919200,0.9999508653319,0.016362810020213,0.0058985455519904,0.0058985455519878,0.0045657189162347,-0.0015065152922851,0.0015065152922871,1.1672584587024e-15,1.3557232894665e-15,1.8345321915949e-15,1.1889636779758e-15,-0.0015939294913641,0.001593929491368,-0.001593929761951,0.0015939297619529,-0.0015939294711492,0.0015939294711517,-0.0015939297821664,0.0015939297821639,-0.0013233828827789,0.0013233828827775,-0.001323383969512,0.0013233839695218,-8.5475035855151e-15,-7.6028317322756e-15,3.4684821443819e-09,-3.4685135454446e-09,-0.0015065152922949,0.0015065152922759,-0.0015939283022478,0.0015939306253575,-0.0015939309510765,0.0015939286279371,-0.0015939283022451,0.001593930625356,-0.0015939309510765,0.0015939286279377,-0.0013233795380822,0.0013233863108391,-0.0013233873142548,0.0013233805414367,-0.001515672400096,0.0015156700564205,-0.0015156724000995,0.0015156700564213,2.2765959294911e-09,2.2765961364919e-09,-0.0008547665854856,0.000854770914091,-1.2951190374583e-09,5.7967799478811e-09,-0.00091423872847889,0.00091424132683202,-0.00091423634043369,0.00091424371487161,-0.00091423872847666,0.0009142413268344,-0.0009142363404355,0.0009142437148681,-0.00099929662468908,0.00099930321822015,-0.00099929662468948,0.0009993032182245,0.68688558505508,120135,2834,0.0062570444408308,0.0062570444408281,0.003557368973355,25.464113983615,0.00011891291186892,0.00011891291186892,0.00011891291186892,2094062.089735,0.016201575640557
30419200,0.99995843582667,0.016362914354976,0.0058985837301185,0.0058985837301159,0.0045657468947415,-0.0015094085179809,0.0015094085179828,1.2227273524011e-15,1.4055452968501e-15,1.9062358834493e-15,1.2361681182655e-15,-0.0015957617282257,0.0015957617282296,-0.0015957619971976,0.0015957619971997,-0.0015957617079584,0.0015957617079609,-0.0015957620174657,0.0015957620174631,-0.0013277826251932,0.0013277826251921,-0.0013277837038708,0.0013277837038807,-8.539621473367e-15,-7.5693487248276e-15,3.4528653138998e-09,-3.452896705249e-09,-0.0015094085179907,0.0015094085179717,-0.0015957605437574,0.0015957628567308,-0.0015957631816756,0.0015957608686721,-0.0015957605437547,0.0015957628567294,-0.0015957631816756,0.0015957608686728,-0.0013277792947241,0.0013277860367907,-0.0013277870343862,0.0013277802922586,-0.0015189125751846,0.0015189102420021,-0.0015189125751879,0.0015189102420028,2.2831202592765e-09,2.283120470678e-09,-0.00085415799734807,0.00085416234329018,-1.2744417302682e-09,5.7871339767795e-09,-0.00091732976013726,0.00091733236557613,-0.00091732738181594,0.00091733474389189,-0.0009173297601351,0.00091733236557837,-0.00091732738181781,0.00091733474388845,-0.00099728013285933,0.00099728673040037,-0.00099728013286004,0.00099728673040466,0.56251928746541,120135,2834,0.0062689994062946,0.0062689994062919,0.0035548743089343,26.129456774431,0.00012423565419545,0.00012423565419545,0.00012423565419545,2043064.9827033,0.016223348574555
30919200,0.9999651684132,0.016363026062498,0.0058986242979275,0.0058986242979249,0.0045657774666453,-0.0015090797967236,0.0015090797967254,1.0922607498309e-15,1.2890782666026e-15,1.8471788640713e-15,1.1427592071377e-15,-0.0015964459491838,0.0015964459491876,-0.0015964462812356,0.0015964462812375,-0.0015964459295213,0.0015964459295236,-0.0015964463008986,0.001596446300896,-0.0013263731977829,0.0013263731977816,-0.0013263743125996,0.0013263743126093,-8.5252689706496e-15,-7.5207623184839e-15,3.4007841794421e-09,-3.4008155844054e-09,-0.0015090797967332,0.0015090797967143,-0.0015964447865528,0.0015964470617047,-0.0015964474438756,0.0015964451686942,-0.0015964447865502,0.0015964470617031,-0.0015964474438756,0.0015964451686948,-0.0013263699223519,0.0013263765634182,-0.0013263775880766,0.0013263709469492,-0.0015181760614806,0.0015181737638284,-0.0015181760614839,0.0015181737638292,1.9987660921395e-09,1.9987662910324e-09,-0.00086063552157382,0.0008606391494799,-1.4979225814786e-09,5.4525624885176e-09,-0.00091893777318446,0.00091893980335814,-0.00091893543321526,0.00091894214332191,-0.00091893777318229,0.0009189398033605,-0.00091893543321716,0.00091894214331843,-0.001004722417417,0.0010047283819067,-0.0010047224174175,0.0010047283819109,0.67617106509292,120135,2834,0.0062676733064954,0.0062676733064925,0.0035817044807215,27.118126559667,0.00013214501247734,0.00013214501247734,0.00013214501247734,2112946.0267404,0.016247906403505
31419200,0.9999711916319,0.016363129382547,0.0058986618964323,0.0058986618964298,0.0045658055896844,-0.0015140677944131,0.001514067794415,1.1686701802811e-15,1.3634877581496e-15,1.8784426148675e-15,1.1871990260023e-15,-0.0015999638013792,0.0015999638013831,-0.001599964198101,0.0015999641981029,-0.0015999637822033,0.0015999637822058,-0.0015999642172776,0.001599964217275,-0.0013332901297235,0.0013332901297222,-0.0013332912689019,0.0013332912689118,-8.5597385058643e-15,-7.5670960362927e-15,3.3152248994993e-09,-3.3152562940029e-09,-0.0015140677944229,0.0015140677944039,-0.0015999626706979,0.0015999648860629,-0.0015999653287917,0.001599963113397,-0.0015999626706953,0.0015999648860614,-0.0015999653287917,0.0015999631133978,-0.0013332869400484,0.0013332934146212,-0.0013332944586235,0.0013332879839897,-0.0015235569574825,0.0015235547180858,-0.0015235569574859,0.0015235547180867,1.6742907998749e-09,1.6742909986769e-09,-0.00085941807745564,0.00085942089704835,-1.7311279070249e-09,5.0435848443274e-09,-0.0009235045042513,0.00092350587197834,-0.00092350222332956,0.00092350815289461,-0.0009235045042492,0.00092350587198068,-0.00092350222333143,0.00092350815289107,-0.0010018185916656,0.0010018238190251,-0.0010018185916661,0.0010018238190294,0.69952705654839,120135,2834,0.0062882862547657,0.0062882862547631,0.0035767098213518,28.434828162628,0.00014267862530103,0.00014267862530103,0.00014267862530103,2031383.4163946,0.016284742284619
31919200,0.99997637981309,0.01636322096283,0.0058986951441121,0.0058986951441095,0.004565830674608,-0.0015160955935369,0.0015160955935389,1.2077278106268e-15,1.4013101321138e-15,1.8931480479796e-15,1.2271683932009e-15,-0.0016018738222562,0.0016018738222601,-0.0016018741266171,0.0016018741266192,-0.0016018738020027,0.0016018738020053,-0.0016018741468713,0.0016018741468687,-0.0013353722164366,0.0013353722164355,-0.0013353733066796,0.0013353733066894,-8.5387979691127e-15,-7.5730179601614e-15,3.2974627787945e-09,-3.2974942251017e-09,-0.0015160955935467,0.0015160955935277,-0.0016018726897307,0.0016018748989665,-0.0016018752591519,0.0016018730498865,-0.001601872689728,0.001601874898965,-0.0016018752591519,0.0016018730498872,-0.001335369038454,0.0013353754761006,-0.0013353764847086,0.0013353700470008,-0.0015255069934601,0.0015255047640457,-0.0015255069934635,0.0015255047640466,2.1000693604736e-09,2.1000695598459e-09,-0.00085933597955572,0.00085933987424985,-1.3013606428845e-09,5.4482890399509e-09,-0.00092453596594466,0.00092453827081741,-0.0009245336915617,0.00092454054519481,-0.00092453596594246,0.00092453827081969,-0.00092453369156359,0.0009245405451913,-0.0010018391924078,0.0010018453061561,-0.0010018391924084,0.0010018453061604,0.71926751588325,120135,2834,0.0062966727732153,0.0062966727732126,0.0035763935563668,29.267834500465,0.00014934267600372,0.00014934267600372,0.00014934267600372,2012010.5884391,0.016301468440392
32419200,0.99998064008754,0.016363303501895,0.0058987250404175,0.005898725040415,0.0045658534210624,-0.0015163774730262,0.0015163774730282,1.2039632197501e-15,1.3984866889563e-15,1.8897363874976e-15,1.2252272760301e-15,-0.0016021788727247,0.0016021788727287,-0.0016021791769457,0.0016021791769478,-0.0016021788524685,0.001602178852471,-0.0016021791972026,0.0016021791972001,-0.0013355910911396,0.0013355910911384,-0.0013355921809182,0.0013355921809281,-8.5574444582988e-15,-7.5930244146949e-15,3.2962474788441e-09,-3.2962790003877e-09,-0.0015163774730361,0.0015163774730171,-0.001602177740575,0.0016021799490209,-0.0016021803091048,0.0016021781006292,-0.0016021777405723,0.0016021799490193,-0.0016021803091049,0.0016021781006299,-0.0013355879142748,0.0013355943495103,-0.0013355953578294,0.0013355889225325,-0.0015257946648077,0.001525792436191,-0.0015257946648111,0.0015257924361919,2.6214352013291e-09,2.6214353997421e-09,-0.00085800715214919,0.00085801240497713,-7.9910715094272e-10,5.9751667808887e-09,-0.00092376001813875,0.00092376351110275,-0.00092375773496327,0.00092376579427271,-0.00092376001813657,0.00092376351110505,-0.00092375773496516,0.0009237657942692,-0.0010006313697546,0.0010006386649629,-0.0010006313697552,0.0010006386649672,0.78912843059545,120135,2834,0.0062978338574682,0.0062978338574655,0.0035708931414171,29.299038827152,0.00014959231061722,0.00014959231061722,0.00014959231061722,1992175.3388525,0.016298239187548
32919200,0.99998411101411,0.016363362352705,0.0058987464297576,0.005898746429755,0.0045658694931922,-0.001517054842232,0.0015170548422339,1.1961399293345e-15,1.3897222508215e-15,1.8813542906237e-15,1.2193156919191e-15,-0.0016027489712347,0.0016027489712386,-0.0016027491798912,0.0016027491798932,-0.0016027489502386,0.0016027489502411,-0.001602749200888,0.0016027492008854,-0.0013362489527107,0.0013362489527096,-0.0013362499490933,0.0013362499491032,-8.5673265093501e-15,-7.604222199908e-15,3.3072906842796e-09,-3.3073222258557e-09,-0.0015170548422418,0.0015170548422228,-0.001602747830032,0.0016027500500339,-0.0016027503211034,0.0016027481010716,-0.0016027478300293,0.0016027500500324,-0.0016027503211033,0.0016027481010723,-0.0013362457617325,0.001336252218031,-0.001336253140118,0.0013362466837581,-0.0015266096074051,0.0015266073706592,-0.0015266096074085,0.00152660737066,2.888129618273e-09,2.8881298184989e-09,-0.00085478217645904,0.00085478810792818,-5.4501836584245e-10,6.2471016791848e-09,-0.00092222198030002,0.00092222605338275,-0.00092221969063202,0.0009222283430452,-0.00092222198029781,0.00092222605338503,-0.00092221969063389,0.00092222834304167,-0.00099758266390449,0.00099759055491852,-0.00099758266390508,0.00099759055492283,0.69092321609736,120135,2834,0.0063006223008199,0.0063006223008173,0.0035575407009065,29.174807067743,0.00014859845654194,0.00014859845654194,0.00014859845654194,1945074.4160365,0.016290341320074
33419200,0.99998697919145,0.01636341699718,0.0058987661914128,0.0058987661914102,0.0045658846143573,-0.0015162141635504,0.0015162141635524,1.1860225913534e-15,1.3781343695292e-15,1.9053829683288e-15,1.2173157530158e-15,-0.0016028357701415,0.0016028357701454,-0.0016028359324087,0.0016028359324109,-0.0016028357485313,0.0016028357485338,-0.0016028359540198,0.0016028359540172,-0.0013336915891033,0.0013336915891021,-0.0013336926187487,0.0013336926187586,-8.5009755951485e-15,-7.512143039058e-15,3.4039881469337e-09,-3.4040194435941e-09,-0.0015162141635602,0.0015162141635413,-0.0016028345922582,0.001602836879792,-0.0016028371103014,0.0016028348227381,-0.0016028345922555,0.0016028368797904,-0.0016028371103014,0.0016028348227388,-0.0013336882990799,0.0013336949427647,-0.0013336959088184,0.0013336892650727,-0.0015256978673232,0.0015256955643164,-0.0015256978673266,0.0015256955643173,2.7542274218861e-09,2.7542276230602e-09,-0.00085657062308259,0.00085657616803087,-7.7181006399704e-10,6.205117329072e-09,-0.00092067110714612,0.00092067478308471,-0.0009206687548013,0.00092067713542397,-0.00092067110714398,0.00092067478308702,-0.00092066875480326,0.00092067713542048,-0.0010006579803967,0.001000665540868,-0.0010006579803971,0.0010006655408723,0.77567308772675,120135,2834,0.0062971672726703,0.0062971672726677,0.0035649336964002,29.315883688049,0.0001497270695044,0.0001497270695044,0.0001497270695044,2002720.3821915,0.016290822802105
33919200,0.99998941619713,0.016363462644105,0.0058987827452102,0.0058987827452076,0.0045658971536869,-0.0015192600862208,0.0015192600862229,1.2627849521983e-15,1.4571907779396e-15,1.9173826017483e-15,1.2624026109374e-15,-0.00160510916473,0.0016051091647341,-0.0016051094499174,0.0016051094499195,-0.0016051091445193,0.0016051091445219,-0.0016051094701288,0.0016051094701264,-0.0013376485588872,0.0013376485588861,-0.0013376496444431,0.0013376496444531,-8.5496211678832e-15,-7.5925258086034e-15,3.3916313902382e-09,-3.3916628821668e-09,-0.0015192600862307,0.0015192600862116,-0.0016051080010035,0.0016051102728516,-0.0016051106136534,0.0016051083417756,-0.0016051080010008,0.0016051102728501,-0.0016051106136534,0.0016051083417763,-0.0013376452882212,0.0013376519103181,-0.0013376529151557,0.0013376462929976,-0.0015290505149745,0.0015290482227691,-0.0015290505149779,0.00152904822277,2.1964853847633e-09,2.1964855837555e-09,-0.00085491286237622,0.00085491699849761,-1.2996079245318e-09,5.6391688280279e-09,-0.00092239196518578,0.0009223944172141,-0.00092238962768375,0.00092239675471057,-0.00092239196518358,0.00092239441721635,-0.00092238962768563,0.00092239675470705,-0.00099817165701866,0.00099817803451027,-0.00099817165701932,0.00099817803451463,0.76303060755972,120135,2834,0.0063097541412587,0.0063097541412561,0.0035580893294562,30.068558569695,0.00015574846855756,0.00015574846855756,0.00015574846855756,1949193.6872363,0.016309460237963
34419200,0.99999153309984,0.016363500481518,0.005898796462204,0.0058987964622014,0.004565907557113,-0.0015217671495548,0.0015217671495567,1.1874931346646e-15,1.3827812863926e-15,1.8623842819092e-15,1.222462654605e-15,-0.0016079456551845,0.0016079456551884,-0.0016079460715436,0.0016079460715456,-0.0016079456361801,0.0016079456361826,-0.0016079460905487,0.0016079460905462,-0.0013395582876937,0.0013395582876925,-0.0013395594368925,0.0013395594369023,-8.5143869501467e-15,-7.5721838863771e-15,3.2865106114098e-09,-3.2865420673627e-09,-0.0015217671495646,0.0015217671495456,-0.0016079445354083,0.0016079467306481,-0.0016079471913292,0.0016079449960596,-0.0016079445354056,0.0016079467306466,-0.0016079471913292,0.0016079449960603,-0.0013395551273623,0.0013395615459916,-0.0013395625972703,0.0013395561785798,-0.0015315275980342,0.0015315253781405,-0.0015315275980376,0.0015315253781414,1.5883992046953e-09,1.5883994022533e-09,-0.00085721596228655,0.00085721856587555,-1.7862093965143e-09,4.9297903741557e-09,-0.00092390850924483,0.0009239097115736,-0.00092390624814688,0.00092391197266598,-0.00092390850924266,0.00092390971157592,-0.00092390624814878,0.00092391197266246,-0.0010010194749816,0.0010010245053915,-0.0010010194749821,0.0010010245053958,0.72790058071018,120135,2834,0.006320138657376,0.0063201386573734,0.0035676474865317,31.477079757768,0.00016701663806214,0.00016701663806214,0.00016701663806214,1947694.2819249,0.016340279572442
34919200,0.99999339636082,0.016363535173918,0.0058988090205768,0.0058988090205743,0.0045659171327671,-0.0015252693571201,0.0015252693571221,1.1922576949929e-15,1.3874870249885e-15,1.8760015129709e-15,1.2399032982759e-15,-0.0016118512195531,0.0016118512195571,-0.0016118517762945,0.0016118517762965,-0.0016118512016368,0.0016118512016394,-0.0016118517942114,0.0016118517942089,-0.0013424638644139,0.0013424638644127,-0.001342465081075,0.0013424650810849,-8.5189162235452e-15,-7.5814166006475e-15,3.076117038088e-09,-3.0761484777296e-09,-0.00152526935713,0.001525269357111,-0.0016118501778409,0.0016118522270739,-0.0016118528180161,0.0016118507687534,-0.0016118501778383,0.0016118522270723,-0.0016118528180161,0.0016118507687541,-0.0013424609167095,0.0013424669251323,-0.0013424680288258,0.0013424620203418,-0.0015350270156513,0.0015350249379065,-0.0015350270156547,0.0015350249379074,9.2925140166213e-10,9.2925160000149e-10,-0.00086213343401108,0.00086213438282585,-2.2198272281255e-09,4.063100497363e-09,-0.00092728012555684,0.00092728003021232,-0.00092727801070528,0.00092728214505835,-0.00092728012555466,0.00092728003021464,-0.00092727801070716,0.00092728214505485,-0.001006369375206,0.0010063728815156,-0.0010063693752066,0.0010063728815199,0.75808686568768,120135,2834,0.0063346502061492,0.0063346502061465,0.0035880432072498,33.569296188703,0.00018375436950963,0.00018375436950963,0.00018375436950963,1956536.5148927,0.016390503229862
35419200,0.99999500734971,0.016363561819615,0.0058988186963183,0.0058988186963158,0.0045659244269811,-0.0015303748127178,0.0015303748127198,1.2706082426139e-15,1.463014129452e-15,1.8931186371134e-15,1.2705494208815e-15,-0.001616678428019,0.001616678428023,-0.0016166790403213,0.0016166790403234,-0.001616678410212,0.0016166784102146,-0.001616679058129,0.0016166790581266,-0.0013479119039296,0.0013479119039287,-0.0013479131466623,0.0013479131466724,-8.5077400943801e-15,-7.5823166191085e-15,2.8852046556165e-09,-2.8852360255163e-09,-0.0015303748127276,0.0015303748127087,-0.0016166774507673,0.0016166793720529,-0.0016166800175826,0.0016166780962673,-0.0016166774507647,0.0016166793720515,-0.0016166800175826,0.001616678096268,-0.0013479091438024,0.0013479147785146,-0.0013479159068358,0.0013479102720625,-0.0015402512255038,0.0015402492753985,-0.0015402512255073,0.0015402492753994,6.4031959392502e-10,6.4031979469922e-10,-0.00086564117465096,0.00086564140630861,-2.3158480903276e-09,3.5829780900082e-09,-0.00093195529512624,0.0009319547042082,-0.00093195330840622,0.00093195669092271,-0.00093195529512405,0.00093195470421045,-0.00093195330840807,0.00093195669091914,-0.0010095343178488,0.0010095370925001,-0.0010095343178496,0.0010095370925046,0.67379056419233,120135,2834,0.0063557798609925,0.0063557798609898,0.0036026181828801,35.924768683185,0.00020259814946548,0.00020259814946548,0.00020259814946548,1930039.8359667,0.016448273773156
35919200,0.99999631053469,0.016363584925689,0.0058988270579931,0.0058988270579906,0.0045659308097056,-0.0015321173061645,0.0015321173061664,1.1980222247728e-15,1.3939574155578e-15,1.8713840069737e-15,1.2447266803367e-15,-0.0016191946522026,0.0016191946522066,-0.0016191951178805,0.0016191951178825,-0.0016191946326272,0.0016191946326297,-0.0016191951374565,0.001619195137454,-0.0013486741476418,0.0013486741476406,-0.0013486753165062,0.0013486753165161,-8.5160927803877e-15,-7.5886732723436e-15,2.8172852600015e-09,-2.817316721636e-09,-0.0015321173061743,0.0015321173061553,-0.0016191936847043,0.001619195570332,-0.0016191960853882,0.0016191941997308,-0.0016191936847017,0.0016191955703304,-0.0016191960853882,0.0016191941997315,-0.0013486714445891,0.0013486769425949,-0.0013486780196053,0.0013486725215383,-0.0015418220859514,0.0015418201778002,-0.0015418220859548,0.001541820177801,1.3062106981078e-09,1.3062108960361e-09,-0.00087134026588369,0.0008713421880548,-1.6043829355997e-09,4.1751443767199e-09,-0.00093435013104904,0.00093435103471627,-0.00093434818126569,0.00093435298449412,-0.00093435013104688,0.00093435103471858,-0.00093434818126759,0.00093435298449063,-0.0010160242140425,0.0010160283496308,-0.0010160242140431,0.0010160283496352,0.72183945217264,120135,2834,0.006363018149139,0.0063630181491364,0.0036262422921516,37.533099563851,0.00021546479651081,0.00021546479651081,0.00021546479651081,1967468.0092984,0.016486993358855
36419200,0.99999727178757,0.016363601551706,0.0058988330854636,0.0058988330854611,0.004565935380781,-0.0015328257741096,0.0015328257741116,1.200022163676e-15,1.3956044240664e-15,1.8721486894956e-15,1.2456972389221e-15,-0.0016196874696467,0.0016196874696506,-0.0016196879346768,0.0016196879346788,-0.0016196874500442,0.0016196874500467,-0.0016196879542799,0.0016196879542774,-0.0013495497588742,0.001349549758873,-0.0013495509254717,0.0013495509254816,-8.5480329811071e-15,-7.6208873617546e-15,2.8125443704729e-09,-2.8125759473807e-09,-0.0015328257741195,0.0015328257741004,-0.0016196865034959,0.0016196883861134,-0.001619688900837,0.0016196870181897,-0.0016196865034932,0.0016196883861118,-0.001619688900837,0.0016196870181903,-0.0013495470601956,0.0013495525488856,-0.0013495536241968,0.0013495481354454,-0.0015427398884343,0.0015427379834228,-0.0015427398884378,0.0015427379834236,2.4025251851871e-09,2.4025253843516e-09,-0.00086983619443958,0.00086984097057522,-5.4666935934691e-10,5.2808854086787e-09,-0.00093426719503603,0.00093427059848944,-0.0009342652279106,0.00093427256560933,-0.00093426719503386,0.00093427059849175,-0.00093426522791249,0.00093427256560582,-0.0010144536727613,0.0010144602902804,-0.0010144536727618,0.0010144602902847,0.70447270805609,120135,2834,0.0063659396728448,0.0063659396728421,0.0036200263772069,37.488431384785,0.00021510745107828,0.00021510745107828,0.00021510745107828,1929229.4103044,0.016486619710355
36919200,0.99999796431496,0.01636361255844,0.0058988370790707,0.0058988370790682,0.0045659384003012,-0.001531706248553,0.001531706248555,1.2091395322055e-15,1.4030747840873e-15,1.8718839916996e-15,1.2523440946887e-15,-0.0016183945658503,0.0016183945658543,-0.0016183945748649,0.001618394574867,-0.0016183945416565,0.001618394541659,-0.0016183945990594,0.0016183945990569,-0.0013486735324747,0.0013486735324736,-0.0013486744834645,0.0013486744834744,-8.5463271508661e-15,-7.6262068224105e-15,3.0678396790973e-09,-3.067871230785e-09,-0.0015317062485629,0.0015317062485439,-0.0016183934811942,0.0016183955584455,-0.0016183956595305,0.0016183935822493,-0.0016183934811915,0.001618395558444,-0.0016183956595305,0.00161839358225,-0.0013486705574837,0.0013486765374188,-0.001348677458502,0.0013486714785055,-0.0015415687891689,0.0015415667058369,-0.0015415687891724,0.0015415667058377,3.417871395855e-09,3.4178715955454e-09,-0.00086817093521,0.00086817817134119,1.9537253691487e-10,6.5234029718847e-09,-0.00093300389562597,0.00093300924343739,-0.00093300175503365,0.0009330113840242,-0.00093300389562378,0.00093300924343969,-0.00093300175503552,0.00093301138402068,-0.0010125149797587,0.0010125237203933,-0.0010125149797592,0.0010125237203976,0.64727478642577,120135,2834,0.006361302503059,0.0063613025030564,0.0036131198640092,36.862865654286,0.00021010292523429,0.00021010292523429,0.00021010292523429,1940624.2844772,0.016470171834121
37419200,0.99999849873717,0.016363621149405,0.0058988401929812,0.0058988401929787,0.004565940763445,-0.0015324216525675,0.0015324216525694,1.2030808937633e-15,1.3952514936717e-15,1.8655312445951e-15,1.2535793510701e-15,-0.0016195387895963,0.0016195387896002,-0.0016195390875336,0.0016195390875357,-0.0016195387688011,0.0016195387688037,-0.0016195391083294,0.0016195391083269,-0.0013488792854005,0.0013488792853993,-0.0013488803837993,0.0013488803838093,-8.5313276090918e-15,-7.6182006331706e-15,3.1128072349958e-09,-3.1128387171198e-09,-0.0015324216525773,0.0015324216525583,-0.0016195377146453,0.0016195398037889,-0.0016195401624941,0.0016195380733208,-0.0016195377146427,0.0016195398037874,-0.0016195401624941,0.0016195380733215,-0.001348876285035,0.0013488823596229,-0.0013488833842111,0.0013488773095619,-0.001542195928664,0.0015421938211912,-0.0015421959286674,0.001542193821192,2.1119481033465e-09,2.1119483053996e-09,-0.00087156160070328,0.00087156553499697,-1.1116990226374e-09,5.2732175729699e-09,-0.00093437062046844,0.00093437309365623,-0.00093436846674085,0.00093437524737828,-0.00093437062046627,0.00093437309365854,-0.00093436846674271,0.00093437524737476,-0.001016299429322,0.0010163054485286,-0.0010162994293226,0.0010163054485329,0.65462458225499,120135,2834,0.0063642794406217,0.0063642794406191,0.0036271632669898,37.672421602467,0.00021657937281974,0.00021657937281974,0.00021657937281974,1965620.4625829,0.016490493645305
37919200,0.99999889292512,0.016363627058685,0.0058988423391228,0.0058988423391203,0.0045659423804423,-0.0015327270719346,0.0015327270719366,1.2060219803858e-15,1.3980749368292e-15,1.8672664857024e-15,1.2552851813111e-15,-0.0016197395727926,0.0016197395727965,-0.0016197398709592,0.0016197398709612,-0.0016197395520041,0.0016197395520067,-0.0016197398917483,0.0016197398917458,-0.0013492768557769,0.0013492768557757,-0.0013492779518104,0.0013492779518203,-8.5434448859761e-15,-7.6307371297848e-15,3.1148330235516e-09,-3.1148645660679e-09,-0.0015327270719445,0.0015327270719254,-0.0016197384972327,0.0016197405876616,-0.0016197409465285,0.0016197388560699,-0.0016197384972301,0.0016197405876601,-0.0016197409465285,0.0016197388560705,-0.0013492738535077,0.0013492799321032,-0.0013492809541259,0.001349274875469,-0.0015425981215369,0.0015425960127486,-0.0015425981215404,0.0015425960127494,2.632091676763e-09,2.6320918786351e-09,-0.0008713457389914,0.00087135103168704,-6.1360891171306e-10,5.8021835595692e-09,-0.00093464457684165,0.0009346482313581,-0.0009346424122607,0.00093465039593353,-0.00093464457683947,0.00093464823136041,-0.00093464241226256,0.00093465039593001,-0.0010160062428093,0.0010160134442042,-0.0010160062428099,0.0010160134442086,0.61069305856342,120135,2834,0.0063655404797292,0.0063655404797266,0.003626275881279,37.676437463819,0.00021661149971056,0.00021661149971056,0.00021661149971056,1954215.1815334,0.01649215756144
38419200,0.99999917791754,0.016363631938904,0.0058988441045879,0.0058988441045854,0.0045659437297304,-0.0015312685596925,0.0015312685596945,1.2074337019645e-15,1.3981337585616e-15,1.8623548710429e-15,1.2492853646014e-15,-0.0016183859412698,0.0016183859412738,-0.001618385982604,0.001618385982606,-0.0016183859180319,0.0016183859180344,-0.0016183860058425,0.00161838600584,-0.0013478481417949,0.0013478481417938,-0.0013478491183306,0.0013478491183405,-8.5363862780824e-15,-7.6229364719499e-15,3.3470568244156e-09,-3.3470883411164e-09,-0.0015312685597023,0.0015312685596833,-0.0016183847706505,0.0016183870287657,-0.0016183871532327,0.0016183848950877,-0.0016183847706479,0.0016183870287642,-0.0016183871532327,0.0016183848950884,-0.0013478448984182,0.0013478514274469,-0.0013478523617538,0.0013478458326637,-0.0015410208987773,0.0015410186309362,-0.0015410208987808,0.001541018630937,3.3139518350347e-09,3.3139520387165e-09,-0.00087164173279945,0.00087164868411812,-1.7620601298314e-10,6.7027461827345e-09,-0.00093399492978403,0.00093399987843867,-0.00093399260726168,0.0009340022009555,-0.00093399492978185,0.00093399987844098,-0.00093399260726354,0.000934002200952,-0.0010162462264887,0.0010162549246915,-0.0010162462264893,0.0010162549246958,0.69725492786578,120135,2834,0.0063595094457943,0.0063595094457916,0.0036274909102035,37.198919113192,0.00021279135290554,0.00021279135290554,0.00021279135290554,1976668.4485308,0.016481128797082
38880000,0.99999937692635,0.016363635477559,0.0058988453855708,0.0058988453855683,0.0045659447064197,-0.0015326654137045,0.0015326654139806,2.1238227657312e-13,2.1578064334358e-13,8.2387159599415e-14,8.2929437150855e-14,-0.0016193473061222,0.0016193473066484,-0.0016193473877509,0.0016193473877375,-0.0016193472833884,0.001619347283621,-0.0016193474109949,0.0016193474113928,-0.0013495862290884,0.0013495862296947,-0.0013495872420525,0.0013495872423247,1.8263195013105e-13,1.7323338339052e-13,3.3651036082492e-09,-3.3643228715214e-09,-0.001532665413882,0.0015326654144161,-0.001619346132806,0.0016193484010563,-0.0016193485615487,0.0016193462944825,-0.0016193461334641,0.0016193484006084,-0.0016193485612251,0.0016193462945163,-0.0013495829703672,0.0013495895351478,-0.0013495905013837,0.0013495839378887,-0.0015427070223956,0.00154270474331,-0.0015427070214634,0.0015427047433789,2.9314736311909e-09,2.9314945809705e-09,-0.00086876308493329,0.00086876905202206,-5.6403635315011e-10,6.3379187800053e-09,-0.00093384897098275,0.00093385301511617,-0.00093384664136853,0.00093385534448202,-0.00093384897064892,0.00093385301526264,-0.00093384664106542,0.00093385534432363,-0.0010131836378478,0.0010131914852596,-0.001013183638415,0.0010131914854665,0.72416034322609,120135,2834,0.0063652698741369,0.0063652698754042,0.0036155831776847,37.19370659341,0.00021274965274728,0.00021274965274728,0.00021274965274728,1920552.3918073,0.016480744109843
