time,ASR_ext,ASR_strain,ASR_strain_xx,ASR_strain_yy,ASR_strain_zz,disp_x_101,disp_x_102,disp_x_103,disp_x_104,disp_x_105,disp_x_106,disp_x_p1_neg,disp_x_p1_pos,disp_x_p2_neg,disp_x_p2_pos,disp_x_p3_neg,disp_x_p3_pos,disp_x_p4_neg,disp_x_p4_pos,disp_x_p5_neg,disp_x_p5_pos,disp_x_p6_neg,disp_x_p6_pos,disp_y_101,disp_y_102,disp_y_103,disp_y_104,disp_y_105,disp_y_106,disp_y_p1_neg,disp_y_p1_pos,disp_y_p2_neg,disp_y_p2_pos,disp_y_p3_neg,disp_y_p3_pos,disp_y_p4_neg,disp_y_p4_pos,disp_y_p5_neg,disp_y_p5_pos,disp_y_p6_neg,disp_y_p6_pos,disp_y_p7_neg,disp_y_p7_pos,disp_y_p8_neg,disp_y_p8_pos,disp_z_101,disp_z_102,disp_z_103,disp_z_104,disp_z_105,disp_z_106,disp_z_p1_neg,disp_z_p1_pos,disp_z_p2_neg,disp_z_p2_pos,disp_z_p3_neg,disp_z_p3_pos,disp_z_p4_neg,disp_z_p4_pos,disp_z_p5_neg,disp_z_p5_pos,disp_z_p6_neg,disp_z_p6_pos,humidity,ndof,nelem,strain_xx,strain_yy,strain_zz,temp,thermal_strain_xx,thermal_strain_yy,thermal_strain_zz,vonmises,vstrain
2419200,0,0,0,0,0,0,0,0,0,0,0,0,0,0,0,0,0,0,0,0,0,0,0,0,0,0,0,0,0,0,0,0,0,0,0,0,0,0,0,0,0,0,0,0,0,0,0,0,0,0,0,0,0,0,0,0,0,0,0,0,0,0,0,0,0,0,0,0,0,0,0,0,0,0,0
3419200,0.15846859695959,0.0027326333794762,0.00091087779315872,0.00091087779315872,0.00091087779315872,-0.00026451418397339,0.00026048061048045,-2.4012292018116e-06,-1.5549487080574e-06,-2.6181904860086e-07,-3.7710124254835e-06,-0.00026536691988316,0.00026218137211416,-0.00026505681864072,0.00026262604831844,-0.00026652017501179,0.00026103427913569,-0.00026660125732058,0.00026153088029428,-0.00026134018653302,0.00025503330987991,-0.0002611980150025,0.00025643894360691,-2.094062285886e-06,1.3670734383151e-06,4.4895792205586e-07,-7.8415697666515e-07,-0.00026285576971605,0.00026233551466126,-0.00026488055666936,0.00026350269960447,-0.00026509913787685,0.00026288610716195,-0.00026350461514616,0.00026468893264893,-0.00026376653660118,0.00026409189823081,-0.00025798136223447,0.00026030298516351,-0.00025875766937042,0.00025862125062232,-0.00026396425514468,0.00025899764532701,-0.00026067800585861,0.00026238699944215,5.4571101739297e-07,-2.9378159245382e-07,-0.00024515457511305,0.00024567310028777,-1.6029510540335e-07,1.0514405444008e-06,-0.00024884383340454,0.00024925128685004,-0.00024849673077296,0.00024955847024582,-0.00024912566242395,0.00024891277598805,-0.00024870432912058,0.00024921265983222,-0.00024846447424218,0.00024817083743449,-0.00024751814576593,0.00024884239165965,0.7839679004836,128736,2834,0.0010931390004722,0.001093547903261,0.0010220355282777,31.78537613071,0.00016948300904568,0.00016948300904568,0.00016948300904568,1158334.5262527,0.0032138769478895
4419200,0.35010973742773,0.0059674181644948,0.0020439713733192,0.0020448710969665,0.0018785756942091,-0.00054494210043438,0.00053927940231677,-3.4006226375624e-06,-2.20155292415e-06,-7.2679048393386e-07,-4.9509077925006e-06,-0.00055257553389238,0.0005479117160697,-0.00055217423297947,0.00054864817474546,-0.00055401784834694,0.00054654937928413,-0.00055439257093313,0.00054743296890666,-0.00052565317647214,0.00051708425047289,-0.00052589823028834,0.00051939663650212,-2.2174319080515e-06,1.8552709420968e-06,1.0955947482354e-07,2.0467495420706e-07,-0.00054236327241692,0.00054231743220367,-0.00055191795490356,0.00055031175934748,-0.00055154256841644,0.00054987624133145,-0.00055016994297568,0.00055170302646456,-0.00054985620120128,0.00055132468916361,-0.00052220890147598,0.00052422407141692,-0.00052122025901219,0.00052328989246213,-0.00054281766884326,0.00053802377525041,-0.00053887751558821,0.00054194715466166,5.0793167696588e-07,-6.41808269069e-07,-0.00046380622798419,0.00046420498957015,5.9330135585831e-07,5.1546198366556e-07,-0.00047517438241835,0.00047608248747823,-0.000475314130442,0.00047580991950698,-0.00047555167107,0.00047554229574808,-0.00047551862340986,0.00047524244342147,-0.00048182922571693,0.00048035111256924,-0.00048068829137447,0.00048140599905522,0.77882048856849,128736,2834,0.0022562325246876,0.0022571869898714,0.0019315212964008,33.598604762363,0.0001839888380989,0.0001839888380989,0.0001839888380989,2074455.0254764,0.0064657646276181
5419200,0.55064032137785,0.0092969072687127,0.0032474403901313,0.003248311287119,0.0028011555914624,-0.0008446336393424,0.00084016252618196,-4.8688403258721e-06,4.0675685319951e-07,-7.85666891017e-07,-3.7116264917068e-06,-0.00086666962681664,0.00086139604508077,-0.00086482008541678,0.00086336499558676,-0.00086765969050901,0.00086044844389416,-0.00086642437307716,0.0008624943024829,-0.00079922746270466,0.00078853592327523,-0.00079463066483681,0.00079416239621279,-6.4709883244103e-07,2.1067509200688e-06,2.9516504674838e-07,1.4186900111452e-06,-0.00084185499836127,0.00084338605141034,-0.0008647156487339,0.000864698664622,-0.00086411161653241,0.00086483501695176,-0.00086341429342704,0.0008656144297022,-0.00086283242130256,0.00086577434111157,-0.00079386977321394,0.00079552628939815,-0.0007923412321791,0.00079620529396001,-0.00084142641203794,0.00084034655843522,-0.00083861273166529,0.00084303146995345,2.4279013819665e-06,-2.781626214268e-06,-0.00066582291542715,0.00066571341400756,6.4484786461722e-07,-3.8518371897593e-07,-0.00068373619466061,0.00068574899197554,-0.00068417299282956,0.00068528283226111,-0.00068543543562048,0.0006839199879067,-0.00068574889806313,0.00068337190894414,-0.0007095817561918,0.00070372554724008,-0.0007046497442822,0.00070903440999275,0.77319620035577,128736,2834,0.003503793130071,0.0035047167161528,0.0027703627622623,36.266592204055,0.00020533273763244,0.00020533273763244,0.00020533273763244,2724218.9628747,0.0098268758388091
6419200,0.70716480241773,0.01173087450292,0.0041545863619809,0.0041553571724311,0.003420930968508,-0.001070387607323,0.0010661181687756,-4.9183437971501e-06,6.8966307719307e-07,3.3540218010213e-07,-4.680685370366e-06,-0.0011089368602518,0.001104461529357,-0.0011069726544034,0.0011065271242409,-0.0011106298908135,0.0011028147876661,-0.0011092822781658,0.0011049909735241,-0.00099084976296301,0.00097927638286333,-0.00098595889937705,0.00098525165168726,-1.5428450594409e-06,3.3191237163643e-06,-9.597062322647e-08,2.1800506661964e-06,-0.001067516008846,0.0010693876475905,-0.0011076578165975,0.0011069502914051,-0.0011067066237364,0.0011074613331111,-0.0011057258204071,0.0011085833940536,-0.0011047938866731,0.0011091159325327,-0.00098508909505355,0.00098671468629464,-0.00098242912518354,0.0009885896285395,-0.0010648052783577,0.00106222822822,-0.0010599997414764,0.0010670326051569,2.5558039231831e-06,-2.9957683966295e-06,-0.00078550551477048,0.00078533021225575,1.1810179926717e-06,-9.9438222634266e-07,-0.00081380459344876,0.00081625425092074,-0.00081461375524912,0.00081540012550952,-0.00081561127964413,0.00081429787368594,-0.00081630426595445,0.00081337629171802,-0.0008511923604025,0.00084453974623801,-0.00084586168035676,0.00085010071930851,0.72914356972717,128736,2834,0.0044410579282521,0.0044418831390038,0.0032676520527882,36.738372753731,0.00020910698202985,0.00020910698202985,0.00020910698202985,3121608.781098,0.012224811250256
7419200,0.83243911253886,0.013613462118553,0.0048648495606465,0.004865606725151,0.0038830058327554,-0.001256242577256,0.0012511999526998,-5.7914570411938e-06,7.8109123717383e-07,1.2124193026814e-07,-5.2556845700453e-06,-0.0013141828830349,0.0013087280603221,-0.0013118977681081,0.001311097400771,-0.0013159744226741,0.0013069507078389,-0.0013142672616592,0.0013094200192615,-0.0011408200125909,0.0011273954318522,-0.0011349438481587,0.0011342660736493,-1.4968807128295e-06,3.7269547495819e-06,8.088923099466e-07,1.6841555355453e-06,-0.0012527597259542,0.0012550514516581,-0.0013120031824758,0.0013120432298241,-0.0013115092557037,0.0013121027316849,-0.0013099551453805,0.0013138124015947,-0.0013095037294282,0.0013138889183643,-0.001133115812146,0.0011366968622783,-0.0011318563191034,0.0011371918927483,-0.0012462947156597,0.0012433405328081,-0.0012411452825642,0.0012484975017782,3.2625383095272e-06,-3.2680014685316e-06,-0.00086338862040906,0.00086362660735522,6.8560776441133e-07,-9.4489840823753e-08,-0.00090194007340661,0.00090465692378545,-0.00090228486056911,0.00090429330288373,-0.00090409984245696,0.00090237525256027,-0.00090431597009481,0.00090195197278362,-0.00095210238647076,0.00094540451051163,-0.00094578106264287,0.00095185638109967,0.71234622007672,128736,2834,0.0052100300956563,0.0052107941217452,0.0035922812231916,40.760780624351,0.00024128624499481,0.00024128624499481,0.00024128624499481,3227345.3109339,0.014111951916766
8419200,0.90800299663739,0.014724475406203,0.0052850176438523,0.0052857528950987,0.0041537048672516,-0.001366150018672,0.0013614523771028,-6.1611055887757e-06,1.4947989587367e-06,1.1987816110814e-07,-4.8996585440373e-06,-0.0014381404960682,0.0014325557880965,-0.0014354986885684,0.0014352945894688,-0.0014398225177156,0.0014308848731699,-0.0014377642686954,0.0014337309838013,-0.0012238921548122,0.0012098815767873,-0.0012169116819384,0.0012177930237143,-1.3237681521701e-06,3.547920309048e-06,8.3158921963804e-07,1.6329932715209e-06,-0.0013628552712222,0.0013651312862494,-0.0014358413526645,0.001436011016801,-0.0014353811054279,0.0014360470756815,-0.0014339056404045,0.001437653597042,-0.0014334814903364,0.0014377094598364,-0.0012158866765002,0.0012193588900214,-0.0012147213442565,0.0012198187050173,-0.0013541422846908,0.0013515443986087,-0.0013493507567862,0.0013563361457094,3.782182371717e-06,-3.8323477205861e-06,-0.00088937558052936,0.00088956229996975,6.2070373090512e-07,-9.3541695337575e-08,-0.00093594403685559,0.00093895599074622,-0.00093626516794871,0.00093860703829905,-0.00093846952845422,0.00093631887360986,-0.00093867181702464,0.00093591023844212,-0.00099642919314015,0.00098867540874786,-0.00098905621639662,0.0009962091580996,0.69848786902607,128736,2834,0.0056661184905451,0.0056669143136471,0.003700437370851,41.43308465813,0.00024666467726504,0.00024666467726504,0.00024666467726504,3066112.587814,0.015147333122767
9419200,0.9498130671873,0.015324692211388,0.0055114228661535,0.0055121568717658,0.004301112473469,-0.0014261915523142,0.0014216911267325,-6.3944654519946e-06,1.9325166105292e-06,-1.2159526624485e-07,-4.4620364432276e-06,-0.0015072848734115,0.0015014479531001,-0.0015044168505181,0.0015044121727634,-0.0015087533093234,0.0015000191504122,-0.0015064668352763,0.0015030769233646,-0.001265713401976,0.0012514916380545,-0.0012580639472724,0.0012600277185516,-1.1130205501433e-06,3.0790285837505e-06,8.9191279485953e-07,1.332553779769e-06,-0.0014231234258723,0.0014251538430554,-0.0015048257890665,0.0015050920710494,-0.0015044752388761,0.00150500389528,-0.0015031143201778,0.0015065011732224,-0.001502792556989,0.0015064414644097,-0.0012576492297057,0.0012609719130762,-0.001256819714912,0.0012611057199832,-0.001413444220245,0.0014111317381193,-0.0014093211081013,0.0014152760774634,4.1487454057654e-06,-4.1403892292192e-06,-0.00089090593959995,0.00089114315845831,4.7165803554077e-07,1.1554190948002e-07,-0.00094320166011783,0.00094635551821973,-0.00094339900842483,0.00094612476761246,-0.00094594567494178,0.00094349745261461,-0.00094603133624369,0.00094320646234729,-0.0010103648659013,0.0010021283377998,-0.0010023420450251,0.0010103338289058,0.67994985028409,128736,2834,0.0059151840021197,0.0059160012326404,0.0037072007370184,41.145479032111,0.00024436383225689,0.00024436383225689,0.00024436383225689,2874635.6230964,0.015660088878878
10419200,0.97072214784409,0.015632056213202,0.0056263402126179,0.0056270747975847,0.0043786412029997,-0.0014512920557535,0.0014467608043198,-6.5477083167202e-06,2.0478395485636e-06,-1.9722635399253e-07,-4.4112918797353e-06,-0.0015374748245461,0.0015314833652757,-0.0015345155310053,0.0015345301144547,-0.0015389063620447,0.001530094288642,-0.0015365311390109,0.0015332443727464,-0.0012804085987432,0.0012659250743189,-0.0012725104299689,0.0012747603049924,-1.0784048355146e-06,2.9865382130378e-06,6.8591532657971e-07,1.4903929267641e-06,-0.0014482248907849,0.0014502056758551,-0.0015349941018451,0.0015351345390077,-0.0015345241254433,0.001535169007936,-0.0015333226163073,0.0015365084657061,-0.0015328801366753,0.0015365623184034,-0.0012724691515256,0.0012753671457502,-0.0012712902874987,0.0012758197177833,-0.0014385952949457,0.0014364682616933,-0.0014345917636861,0.0014404832125939,4.2554921895824e-06,-4.3045222119159e-06,-0.00088229455809281,0.00088248371412811,6.2793145804809e-07,-8.914845524786e-08,-0.00093683317845689,0.00094015601548465,-0.0009371599398369,0.00093980720676368,-0.00093966073077043,0.0009372089973941,-0.00093987451137731,0.00093679722083112,-0.0010096605690187,0.0010009642018403,-0.0010013664518851,0.0010094369620773,0.6932966819793,128736,2834,0.0060190442578571,0.006019826392626,0.0036715438693733,38.100583853112,0.0002200046708249,0.0002200046708249,0.0002200046708249,2722376.2246106,0.015834851966921
11419200,0.98279360478269,0.015806267497709,0.0056911958830319,0.0056919298576419,0.0044231417570351,-0.0014709084331258,0.0014665103861856,-6.5733219663361e-06,2.2064796559356e-06,-2.9108912320748e-07,-4.1800316916934e-06,-0.001559260796657,0.0015532325272604,-0.001556239504779,0.0015563410381229,-0.0015605879283133,0.0015519527464366,-0.0015581512269987,0.0015551637440618,-0.0012938235047637,0.0012793970334048,-0.0012857428395383,0.0012884116647941,-9.811895872922e-07,2.7585081370236e-06,6.4202082599523e-07,1.4035261446547e-06,-0.0014679724494416,0.001469824524449,-0.0015567659949602,0.0015569007680698,-0.0015563115478331,0.0015569203839306,-0.0015551990807081,0.0015581644904272,-0.001554771697265,0.0015582057633517,-0.0012860033970503,0.0012886976265057,-0.001284862282737,0.0012891177111757,-0.0014590940577738,0.0014571441096363,-0.0014554054567417,0.001460835273854,4.3510834847784e-06,-4.3946281024336e-06,-0.0008760633003623,0.00087625677674416,6.0848717510606e-07,-6.602624926787e-08,-0.00093410976371528,0.00093748344936652,-0.00093442184562698,0.00093715102367128,-0.00093700233654627,0.00093447668134473,-0.0009372020901428,0.00093408016817006,-0.0010081071991977,0.00099924763093707,-0.00099962417451115,0.0010078986896151,0.67906583918225,128736,2834,0.0061005210568202,0.0061013040622534,0.0036458399952544,37.628197150379,0.00021622557720303,0.00021622557720303,0.00021622557720303,2576327.7425717,0.015974304773365
12419200,0.98971634585639,0.015908632120423,0.0057290842186393,0.0057298178970236,0.00444973000476,-0.0014797312882596,0.0014753388950378,-6.5688985652831e-06,2.1985384087429e-06,-2.9986853292519e-07,-4.1618826902141e-06,-0.0015700908360469,0.001564073972101,-0.0015670739397964,0.0015671713773031,-0.0015714163947368,0.0015627938956527,-0.0015689704027276,0.001566010202256,-0.0012986509196785,0.001284238330547,-0.0012905707842826,0.0012932402634382,-9.531440846877e-07,2.757714136127e-06,6.5182458004946e-07,1.4113620599034e-06,-0.0014767821639734,0.0014786547583862,-0.0015675875198697,0.0015677409598382,-0.0015671248019633,0.0015677604828906,-0.0015660156091975,0.0015690005236905,-0.0015655843112429,0.0015690248189955,-0.0012908011098,0.001293504613793,-0.0012896589800675,0.001293907399651,-0.0014680509470833,0.0014661672203095,-0.0014643993313679,0.0014698194664439,4.3901299354918e-06,-4.3452742544226e-06,-0.00086998824135547,0.00087027228325647,6.5863461762954e-07,-1.3179743931818e-08,-0.00092904021829265,0.00093249736039513,-0.00092936281349911,0.00093217776542047,-0.00093193055038807,0.00092950311283929,-0.00093213834630994,0.00092910423397644,-0.0010051865061776,0.0009964259287707,-0.00099670665249951,0.0010050593056235,0.69355173647864,128736,2834,0.0061370521104671,0.006137811499983,0.0036208940857967,36.804267166646,0.00020963413733317,0.00020963413733317,0.00020963413733317,2502282.1543567,0.016023173489974
13419200,0.99358249899827,0.015964357940395,0.0057496845816937,0.0057504179304297,0.0044642554282712,-0.001483833250031,0.0014794502149483,-6.5737046584235e-06,2.2199129033724e-06,-2.995445250022e-07,-4.1552866111944e-06,-0.0015746911459975,0.0015686642709073,-0.0015716650008715,0.0015717750323639,-0.0015760077353323,0.0015673932037489,-0.0015735639678438,0.0015706091871803,-0.0013000419656424,0.0012856242723884,-0.0012919367802649,0.0012946488509899,-9.7161168215658e-07,2.7349260675749e-06,6.2767471332642e-07,1.4049808179839e-06,-0.00148091199229,0.0014827506663295,-0.0015722004811697,0.0015723281863199,-0.0015717423979528,0.0015723527894021,-0.0015706437660509,0.0015735815072636,-0.0015702119248643,0.001573625719463,-0.0012922400473699,0.0012948955669337,-0.0012910797577993,0.0012953253268212,-0.0014730322313642,0.0014711070519767,-0.0014693758996466,0.0014747616574376,4.4045912832264e-06,-4.3563145151223e-06,-0.00086259088449683,0.00086287034616871,6.6084534426411e-07,-2.8286924882082e-08,-0.00092338789789024,0.00092684993683818,-0.00092370375458614,0.00092651502636201,-0.00092628432049481,0.00092384036295101,-0.0009264906944854,0.00092343969077754,-0.00099980608764686,0.00099101638679993,-0.00099130346173741,0.00099968240742395,0.67550368725657,128736,2834,0.006154039071889,0.006154824195799,0.0035902485001867,34.794598025407,0.00019355678420325,0.00019355678420325,0.00019355678420325,2409462.5673581,0.016026588729719
14419200,0.99581477096909,0.015996098644904,0.0057614016532223,0.0057621349386519,0.0044725620530302,-0.001482164587166,0.0014777453829126,-6.5890730144352e-06,2.1987372693123e-06,-2.6169310745126e-07,-4.2305321117883e-06,-0.0015743687810877,0.0015683451119677,-0.0015713451562801,0.0015714549954604,-0.001575721852277,0.0015670373423402,-0.0015732808015008,0.0015702506779814,-0.0012960855215534,0.0012816048468094,-0.0012879913253725,0.001290621405187,-1.0075606513192e-06,2.812258367256e-06,6.3008721924688e-07,1.4436783726212e-06,-0.0014792037896021,0.0014810830942679,-0.0015718835273566,0.0015720015654458,-0.0015714121471202,0.0015720389640959,-0.0015702897905468,0.0015732923826691,-0.0015698454900627,0.0015733490772293,-0.001288233534818,0.0012909364131448,-0.0012870455327218,0.0012914027634717,-0.0014712633544364,0.0014692778830222,-0.0014674964738797,0.0014730466274686,4.3661471501517e-06,-4.3891206721459e-06,-0.0008557266850456,0.00085593800202678,6.4349323590274e-07,-8.2882285986607e-08,-0.00091600185878096,0.00091941220019346,-0.00091633336276355,0.00091906415104888,-0.00091889749761064,0.00091640378685166,-0.00091911673141031,0.00091599185724635,-0.00099469347266021,0.00098583157274991,-0.00098620101636561,0.00099448752925275,0.66543916077219,128736,2834,0.0061470523950354,0.0061478327945444,0.0035616388952778,32.643906427214,0.00017635125141771,0.00017635125141771,0.00017635125141771,2373385.9727023,0.015983320595773
15419200,0.99697717735342,0.016013546669761,0.0057677990683137,0.0057685323117131,0.0044772152897342,-0.0014726594550172,0.0014681647198562,-6.612599082812e-06,2.1493572223873e-06,-2.1024173944259e-07,-4.3641311199333e-06,-0.0015654653343851,0.0015594351264045,-0.0015624444506252,0.0015625323452359,-0.0015668737046294,0.0015580648484455,-0.0015644417628424,0.0015612661073176,-0.0012856479718772,0.0012710652531399,-0.0012775768852477,0.0012800441551003,-1.0823482072536e-06,2.9219876506138e-06,6.4764066258041e-07,1.4682337412415e-06,-0.0014696442008307,0.0014715624528953,-0.0015629868373586,0.001563086102311,-0.0015625207413888,0.0015631237355643,-0.0015613388451814,0.001564439841325,-0.0015608944705103,0.0015644999426445,-0.0012776991239907,0.0012805012140436,-0.0012764948942977,0.0012809785375715,-0.0014617604297703,0.0014596206775636,-0.0014578139568411,0.001463577222382,4.4286754333653e-06,-4.3013663631486e-06,-0.00084432953529711,0.00084468135232899,7.1528522470899e-07,-1.6306087074538e-08,-0.00090418612202207,0.00090772380217142,-0.00090451857594385,0.00090737639619387,-0.0009070742384629,0.00090472633639686,-0.00090729430033867,0.0009043115560977,-0.00098388371445932,0.00097519304996065,-0.00097542125414264,0.00098382916169851,0.70138893902139,128736,2834,0.0061075341434282,0.006108326115204,0.0035146186508731,27.069722678282,0.00013175778142626,0.00013175778142626,0.00013175778142626,2320539.9163298,0.015855267892111
16419200,0.99772339073523,0.016024357231202,0.0057717627638479,0.0057724960039724,0.004480098463382,-0.0014722550606971,0.001467780848001,-6.6064079331889e-06,2.1618434432329e-06,-2.0940820550495e-07,-4.3346358000246e-06,-0.0015639167616123,0.0015578958277427,-0.001560898135374,0.0015609889214177,-0.0015653190431965,0.0015565306512589,-0.0015628800125373,0.001559736188598,-0.0012852665891464,0.0012707019463962,-0.0012771753099748,0.0012797072467752,-1.0723562669652e-06,2.9053099193338e-06,6.5308576059751e-07,1.4450859529953e-06,-0.0014692553322189,0.0014711597487178,-0.0015614431965021,0.0015615497696208,-0.0015609822388125,0.0015615706613502,-0.0015598048622677,0.0015628868831011,-0.0015593643602169,0.0015629377566035,-0.0012773222363734,0.0012801139292048,-0.001276126633265,0.001280551436121,-0.0014625067947678,0.0014603770659259,-0.001458572699936,0.0014643048748436,4.49461119535e-06,-4.2386968712144e-06,-0.00083752984633502,0.00083801415220683,7.7147140329101e-07,7.1081289671672e-08,-0.00089973196466277,0.00090338932801283,-0.00090006193990331,0.00090306266764672,-0.00090261393144691,0.0009003951899055,-0.00090283906336963,0.00089998768937792,-0.00097688924806019,0.00096831636895338,-0.00096841415010828,0.00097698469134092,0.67697638708103,128736,2834,0.006105883805783,0.0061066689590277,0.0034867023496497,24.41833532115,0.0001105466825692,0.0001105466825692,0.0001105466825692,2230632.1496506,0.015823554076214
17419200,0.99822451396229,0.016031813544385,0.0057744877525132,0.0057752209867424,0.0044821048051293,-0.0014667565788834,0.0014622211842665,-6.6226606762561e-06,2.1182918747007e-06,-1.876482058935e-07,-4.4311554557858e-06,-0.0015593556867479,0.0015533212354831,-0.0015563378069334,0.0015564092001624,-0.0015607892429422,0.0015519199084364,-0.0015583652811521,0.0015551133119763,-0.0012789126800443,0.0012642806659386,-0.0012708619826562,0.0012732342376514,-1.1142274210429e-06,2.9790918175624e-06,6.7884042413855e-07,1.4638929651315e-06,-0.0014637126514968,0.0014656576433029,-0.0015568709099088,0.001556980450008,-0.0015564212262698,0.0015570066511898,-0.0015551962946522,0.0015583674683342,-0.0015547655582126,0.0015584141333291,-0.0012708998037863,0.0012737953262128,-0.0012697222515515,0.0012742345136996,-0.0014565952885155,0.001454380676782,-0.0014525627015898,0.0014584251200412,4.471796871535e-06,-4.2380614874786e-06,-0.00083126523655863,0.00083171865545914,7.484404978716e-07,5.4140994483771e-08,-0.00089262447473158,0.00089623867942867,-0.0008929439216112,0.00089590539334688,-0.00089550815823786,0.00089325117467103,-0.00089571303486447,0.0008928477955135,-0.00097133637074567,0.00096278165283923,-0.00096289295047148,0.00097139691174602,0.69394003782718,128736,2834,0.0060829901043683,0.0060838029183118,0.0034606260579861,21.980202011765,9.1041616094121e-05,9.1041616094121e-05,9.1041616094121e-05,2217698.327753,0.015750581527206
18419200,0.99853583327979,0.016036369461875,0.0057761518093282,0.0057768850532965,0.00448333259925,-0.0014600112568091,0.0014554710497217,-6.6097473699227e-06,2.0988360100717e-06,-1.5393244990688e-07,-4.4636781245655e-06,-0.0015521182544543,0.0015461132458726,-0.0015491200823152,0.0015491952785131,-0.0015535797679785,0.0015446908305581,-0.001551165457673,0.0015478770285196,-0.0012721413702065,0.0012575042042396,-0.0012641202819836,0.0012664431886679,-1.1177672768609e-06,3.0428606162059e-06,7.2393116384646e-07,1.4674546087459e-06,-0.0014569306755341,0.001458927435509,-0.0015496262485529,0.0015497750088125,-0.0015491794593628,0.0015497862669862,-0.0015479245677428,0.0015511782366374,-0.0015475020668608,0.0015512121404709,-0.001264066743757,0.0012670665444138,-0.0012629325549078,0.0012674620388291,-0.0014503525062022,0.0014481203000453,-0.0014462488529235,0.001452230178678,4.3653288702841e-06,-4.3103043502156e-06,-0.00082228811539373,0.00082257281700465,6.4706421266038e-07,-8.7430335810645e-09,-0.00088457140747261,0.00088799801598905,-0.00088487842659737,0.00088767660028113,-0.0008874394641404,0.00088501853233634,-0.00088763734971079,0.00088463053260369,-0.00096216783079625,0.00095347938647728,-0.00095374932315795,0.00096206297921717,0.68267067292978,128736,2834,0.0060550379345115,0.006055816113004,0.0034230145945887,17.477991088765,5.5023928710121e-05,5.5023928710121e-05,5.5023928710121e-05,2151947.4352084,0.015655563604701
19419200,0.99879361067406,0.016040364190294,0.0057776023056532,0.0057783355411712,0.0044844263434699,-0.001460189086218,0.0014556483436854,-6.6049880664068e-06,2.0928833178401e-06,-1.575983933367e-07,-4.4604550651386e-06,-0.0015529237094087,0.001546919380098,-0.0015499300997517,0.0015499992599082,-0.0015543830339546,0.0015454993256819,-0.001551972405927,0.0015486827064008,-0.001271316813057,0.0012566920870703,-0.0012633128533564,0.001265622862378,-1.1130173548812e-06,3.0408495674817e-06,7.116272825494e-07,1.4795551855472e-06,-0.0014571087555823,0.0014591064990397,-0.0015504351134774,0.0015505762703862,-0.0015499785549513,0.0015505977844831,-0.0015487345489701,0.0015519786232958,-0.0015483044284769,0.0015520201107999,-0.0012632600432709,0.0012662363871556,-0.0012621143982572,0.0012666567908773,-0.0014504719255788,0.0014482633341301,-0.001446378406939,0.0014523646906985,4.3243392364603e-06,-4.3411839202637e-06,-0.00082014784024578,0.00082036593953597,6.2474128837067e-07,-5.6181895892939e-08,-0.00088208728240033,0.00088545919153873,-0.00088240499587628,0.00088512792028367,-0.00088495402105233,0.000882482125472,-0.00088515958877842,0.0008820861494643,-0.00096095104579719,0.00095219700333749,-0.00095254439461435,0.00096076442202184,0.72158242899572,128736,2834,0.0060557730239442,0.006056555382304,0.0034140028923792,17.551568050536,5.5612544404289e-05,5.5612544404289e-05,5.5612544404289e-05,2141386.833712,0.015647907306803
20419200,0.99901794726638,0.016043877192925,0.0057788767026524,0.0057796099314988,0.0044853905587741,-0.0014659205620375,0.0014614303446713,-6.585187583241e-06,2.1228064495448e-06,-1.9831245953175e-07,-4.3665734407023e-06,-0.0015575541377532,0.0015515522020975,-0.0015545571937814,0.0015546355662543,-0.0015589698358546,0.0015501772093164,-0.0015565568281322,0.0015533644375991,-0.0012772091720084,0.0012626669556204,-0.001269198186717,0.0012716131969938,-1.0743601522345e-06,2.9446407480087e-06,6.826034325055e-07,1.4520412844022e-06,-0.0014628937702487,0.001464835602582,-0.0015550746623657,0.0015552039017351,-0.0015546168742514,0.0015552258033743,-0.0015534164883314,0.0015565608986495,-0.0015529852998488,0.00155660288849,-0.0012692488728904,0.001272122084195,-0.0012680995803334,0.0012725423594611,-0.0014571684926454,0.0014550361911223,-0.0014532037909345,0.0014590016346004,4.32333380587e-06,-4.3524182415587e-06,-0.0008197399301833,0.00081994766323301,6.203879824886e-07,-6.1563019684816e-08,-0.0008840740847101,0.00088743992519177,-0.00088439245683258,0.00088710876270328,-0.00088694465974178,0.00088446022393513,-0.00088715091854366,0.00088406363864402,-0.00096036446243916,0.00095158493776154,-0.00095194432539643,0.0009601623160404,0.72910480534078,128736,2834,0.0060795960781243,0.0060803797400709,0.0034123286298647,18.597312354036,6.3978498832292e-05,6.3978498832292e-05,6.3978498832292e-05,2086933.4476344,0.015694605618197
21419200,0.9991705666278,0.016046204265374,0.005779722447766,0.005780455672657,0.0044860261449512,-0.0014597475260985,0.0014552246526629,-6.561504105856e-06,2.0685582313238e-06,-1.726035653385e-07,-4.4287996182836e-06,-0.0015513789892568,0.0015454000174682,-0.0015484069755186,0.0015484551540381,-0.0015528219881626,0.0015439946858039,-0.0015504353442151,0.001547154882474,-0.0012709846571095,0.0012564605693793,-0.0012630465422791,0.0012653297436801,-1.1017790889532e-06,3.005291770361e-06,7.1321259155411e-07,1.458988490789e-06,-0.0014566878312534,0.0014586651102762,-0.0015489032232845,0.0015490503871365,-0.0015484568342112,0.001549061376543,-0.0015472207450112,0.0015504365722408,-0.0015467965984211,0.0015504713496695,-0.0012629970986123,0.0012659580992829,-0.0012618544757049,0.0012663531818704,-0.0014510012373071,0.0014488019816623,-0.0014469503938088,0.0014528594515825,4.3248452528401e-06,-4.2729459765488e-06,-0.00081226984102581,0.00081255479474472,6.4814872225133e-07,-9.8306162768913e-09,-0.00087709379843034,0.00088049708001156,-0.00087740265353433,0.00088017663561317,-0.00087993669076155,0.00087754572162908,-0.00088013665100862,0.00087715553094833,-0.00095287171670573,0.00094425093250475,-0.00094452767127247,0.00095276226082834,0.70951084541714,128736,2834,0.0060539588199904,0.0060547472658541,0.0033814766439091,15.225615260312,3.7004922082494e-05,3.7004922082494e-05,3.7004922082494e-05,2046761.7724273,0.015611199236381
22419200,0.99929690575035,0.016048149548219,0.0057804278371459,0.0057811610604112,0.0044865606506622,-0.0014582709583009,0.0014537380750982,-6.5568442824117e-06,2.0520137466783e-06,-1.5999515166265e-07,-4.449529021994e-06,-0.0015506754188626,0.0015447041280416,-0.0015477114470389,0.0015477544948338,-0.0015521301433815,0.0015432885920838,-0.0015497495786991,0.0015464423488781,-0.0012685873609525,0.0012540618920494,-0.0012606717514909,0.0012629058300172,-1.1115481726106e-06,3.0288840127547e-06,7.0408734450825e-07,1.4767962198021e-06,-0.0014551998521866,0.001457187511437,-0.0015482077666638,0.0015483417207627,-0.0015477493301204,0.0015483647246316,-0.0015465107531823,0.001549739161685,-0.0015460789939611,0.0015497822127028,-0.001260591271754,0.0012635487254091,-0.0012594403127598,0.0012639734888173,-0.0014492797802994,0.0014470749972962,-0.0014451985608768,0.0014511622207622,4.2772333819191e-06,-4.2992002327601e-06,-0.0008097179833325,0.00080993128707174,6.2468738305432e-07,-6.0742072688378e-08,-0.00087386655932652,0.00087720564116586,-0.00087418643231243,0.00087687351758751,-0.00087670444352245,0.00087425889382012,-0.00087691190989692,0.00087386195439758,-0.00095119422930092,0.00094252104225208,-0.00094287331225624,0.00095099928679586,0.71604798163538,128736,2834,0.006047825143409,0.0060486085550996,0.0033707372299545,14.858990533529,3.4071924268234e-05,3.4071924268234e-05,3.4071924268234e-05,2043789.8435511,0.015587826716259
23419200,0.99940909634319,0.016049847503986,0.005781043717776,0.0057817769381839,0.0044870268480256,-0.0014609687731259,0.001456456109851,-6.5553429205024e-06,2.0690652674763e-06,-1.7432893285306e-07,-4.4118395869895e-06,-0.0015533535633876,0.0015473803836886,-0.0015503851516617,0.0015504346726971,-0.0015547918737652,0.0015459804775633,-0.0015524043033282,0.0015491411616717,-0.0012708497943985,0.0012563415771933,-0.0012629154418845,0.0012652066958897,-1.0963624987477e-06,2.9921285924034e-06,6.8827303368147e-07,1.4660660959327e-06,-0.0014579198122435,0.0014598835584723,-0.0015508890402765,0.0015510150527779,-0.0015504286530896,0.0015510388245656,-0.0015492082100109,0.0015523938847791,-0.001548774213694,0.0015524381695055,-0.0012628831749127,0.0012657869399512,-0.0012617250624204,0.0012662173236829,-0.0014522364642116,0.0014500643671634,-0.0014482028891535,0.0014540989370322,4.2963610402045e-06,-4.2960095044526e-06,-0.00080913785863686,0.00080937451589394,6.4020355811296e-07,-5.0174433198253e-08,-0.0008739395117171,0.00087730718476365,-0.00087426147856723,0.00087697604717192,-0.00087678127296531,0.00087435677199235,-0.00087699317965362,0.00087395708420322,-0.00095104824665694,0.00094237477675132,-0.00094270680237306,0.00095087317171459,0.7040442237809,128736,2834,0.0060590333551518,0.0060598170906918,0.0033683985987513,15.705719502787,4.0845756022296e-05,4.0845756022296e-05,4.0845756022296e-05,2024427.9125996,0.01560821919904
24419200,0.99951500326587,0.016051477386962,0.0057816340094445,0.0057823672271411,0.0044874761503763,-0.0014651491737693,0.0014606541604889,-6.5618506829431e-06,2.094162309592e-06,-1.9830303566523e-07,-4.3718896541847e-06,-0.0015581391059509,0.0015521508185613,-0.0015551593187195,0.0015552168312992,-0.0015595549176624,0.0015507730791023,-0.0015571582671232,0.0015539425031838,-0.0012739929484859,0.0012594956047854,-0.0012660311640862,0.0012683857498918,-1.0715424650535e-06,2.9533105440585e-06,6.675018560205e-07,1.4781322183145e-06,-0.0014621181461725,0.0014640713922324,-0.0015556686966995,0.001555794733817,-0.001555199836124,0.0015558309590345,-0.00155401092007,0.0015571546379111,-0.0015535679133691,0.0015572103873772,-0.0012660665041313,0.0012689126518272,-0.0012648811016235,0.0012693764550246,-0.0014563732074557,0.0014542625037647,-0.0014524045411852,0.0014582334926735,4.2976104424761e-06,-4.3269512423785e-06,-0.00081062997880295,0.00081083629293511,6.3939964392081e-07,-8.3881998461375e-08,-0.00087520808495433,0.00087856943530688,-0.00087554024037633,0.00087822468901205,-0.00087806288058434,0.00087560719431572,-0.0008782821223018,0.00087519732242844,-0.00095358985224138,0.00094484972738193,-0.00094522022828322,0.00095337295601747,0.71549404742153,128736,2834,0.0060763813094721,0.0060771810067051,0.0033745501686363,17.881578703153,5.8252629625222e-05,5.8252629625222e-05,5.8252629625222e-05,2028934.6008617,0.015649720761296
25419200,0.99961155908492,0.016053037214142,0.0057821973113922,0.0057829305289617,0.0044879093737882,-0.0014705523019662,0.0014660926403095,-6.5639086141701e-06,2.1303485849927e-06,-2.2286340002676e-07,-4.3085884613087e-06,-0.001563396032472,0.0015574018462431,-0.0015604042566762,0.001560480216892,-0.0015647851371143,0.0015560534459311,-0.0015623753702999,0.0015592368791452,-0.0012789578526863,0.0012644846071576,-0.00127095825168,0.0012734186526367,-1.0469883975194e-06,2.8897537207399e-06,6.4134331600118e-07,1.4625862114535e-06,-0.0014675555927497,0.0014694685413843,-0.0015609293402683,0.0015610402413303,-0.0015604550422989,0.00156107931678,-0.0015592975503135,0.0015623688854499,-0.0015588499045525,0.0015624280225079,-0.0012710807101226,0.0012738422562547,-0.0012698833711911,0.0012743158187964,-0.0014621487998593,0.0014600889501694,-0.001458262648122,0.0014639717487262,4.312957096757e-06,-4.3495752098143e-06,-0.00081203405446809,0.00081223489866464,6.4286876701045e-07,-9.0774722459649e-08,-0.00087754884551439,0.00088092035766599,-0.00087788485910507,0.00088057353580093,-0.00088041502752392,0.00087794618168075,-0.00088063996416027,0.00087753278683343,-0.00095547395620451,0.00094668210048854,-0.00094706370943207,0.00095524540415531,0.75065157205454,128736,2834,0.006098821872716,0.0060996070319233,0.0033803973696591,19.926560985447,7.4612487883573e-05,7.4612487883573e-05,7.4612487883573e-05,2012313.7897221,0.015701231508261
26419200,0.99969072698541,0.016054344306857,0.0057826691131138,0.0057834023287396,0.0044882728650036,-0.0014736347458432,0.0014691961911555,-6.5645625903269e-06,2.1510344946266e-06,-2.3748171952204e-07,-4.2695715543709e-06,-0.0015658029046034,0.0015598058351701,-0.0015628056031532,0.0015628891915851,-0.0015671759802316,0.0015584746190959,-0.0015647584590647,0.0015616657459688,-0.0012821948845903,0.00126773641521,-0.0012741713578273,0.0012767014848389,-1.0326018550039e-06,2.8507217968644e-06,6.3654697769578e-07,1.4395738038566e-06,-0.0014706602040794,0.0014725469458926,-0.0015633365638418,0.0015634468465299,-0.0015628671719847,0.0015634768678454,-0.0015617222670202,0.001564754642953,-0.0015612782568113,0.0015648082056604,-0.0012743413901841,0.0012770699885909,-0.0012731521942271,0.0012775222019464,-0.0014657727289876,0.00146373296256,-0.0014619335966396,0.001467563253135,4.3422263566323e-06,-4.3408932048033e-06,-0.00081091126061196,0.00081115184912567,6.5557482658399e-07,-5.9365927116648e-08,-0.00087821583555026,0.00088162541896413,-0.00087854707537186,0.00088128866837096,-0.00088108583148203,0.00087864613771229,-0.0008813096294991,0.00087823766739913,-0.00095425848348888,0.00094548209657768,-0.00094582318687126,0.00095407664623557,0.76692112535569,128736,2834,0.0061116166805558,0.0061123956635819,0.0033758482149884,20.393280622158,7.8346244977262e-05,7.8346244977262e-05,7.8346244977262e-05,1973619.0964253,0.01572260062003
27419200,0.99975976311006,0.016055441103986,0.0057830658755595,0.0057837990890346,0.0044885761393922,-0.0014780422837199,0.0014735737735761,-6.6034622660081e-06,2.1614546453736e-06,-2.1638366336362e-07,-4.3253097871384e-06,-0.0015701483340985,0.0015641295234982,-0.001567132090432,0.0015672316428877,-0.0015715443850072,0.0015627741898198,-0.0015691124335141,0.0015659801487346,-0.0012864509280245,0.0012718947606987,-0.001278384882228,0.0012808949740438,-1.0553152279481e-06,2.9043474899482e-06,6.2443824969112e-07,1.4897182559471e-06,-0.0014750368225492,0.0014769582861881,-0.0015676767049776,0.001567774064521,-0.0015671882040654,0.0015678279687994,-0.0015660370777503,0.0015691106459622,-0.0015655753580019,0.0015691846712574,-0.0012785504572563,0.001281290756793,-0.0012773098195617,0.00128180675804,-0.0014702525341527,0.0014681887536895,-0.0014663448263651,0.0014720941869466,4.3458878246125e-06,-4.3876747613825e-06,-0.00081148124854289,0.00081167600321484,6.6046048548628e-07,-1.1642481458027e-07,-0.00087997718348348,0.00088338148751852,-0.00088032807081936,0.00088301976609623,-0.00088286833594657,0.00088038351921712,-0.00088310674230268,0.00087995648999213,-0.00095526414331367,0.00094638586208617,-0.000946786045865,0.00095501533178052,0.7378885582402,128736,2834,0.0061297958124935,0.0061305806430471,0.0033781483177897,22.249487837461,9.3195902699686e-05,9.3195902699686e-05,9.3195902699686e-05,1958718.7555356,0.015761876049888
28419200,0.99981650852208,0.016056389029838,0.0057834076794841,0.0057841408917103,0.0044888404586437,-0.0014793041515518,0.0014748256455713,-6.6115804464895e-06,2.1593020051903e-06,-2.1688965476846e-07,-4.3358817679349e-06,-0.001572233144022,0.0015662071050961,-0.001569213446393,0.0015693124736315,-0.0015736336818485,0.0015648446219024,-0.0015711970345613,0.0015680578969799,-0.0012868993647675,0.0012723234890863,-0.0012788266271461,0.0012813210658461,-1.0516999758502e-06,2.9173788074338e-06,6.2176652367521e-07,1.5073332533861e-06,-0.0014762848713779,0.0014782219368442,-0.0015697537952976,0.0015698522250065,-0.0015692577214776,0.0015699160098883,-0.0015681066395422,0.0015711961227408,-0.0015676381130737,0.0015712720869502,-0.0012789799053026,0.0012817182757997,-0.0012777243736007,0.0012822570438222,-0.0014711549809891,0.0014691072854139,-0.00146724175151,0.0014730191470266,4.3486452512159e-06,-4.3921506156653e-06,-0.00081168837380205,0.00081187943561688,6.6888134867614e-07,-1.2843409632235e-07,-0.00087945535240537,0.00088286438493431,-0.00087981230321848,0.00088249544259273,-0.0008823514324137,0.00087986520149041,-0.00088259452133609,0.00087943104485753,-0.00095636072460333,0.0009474730134287,-0.00094787735464601,0.00095609769880021,0.775208348047,128736,2834,0.0061350031005308,0.0061357837093283,0.0033790069824853,23.439579031668,0.00010271663225334,0.00010271663225334,0.00010271663225334,1971290.4725834,0.015773320056731
29419200,0.99986261826612,0.016057072431727,0.005783655747423,0.0057843889582303,0.0044890277260736,-0.001484147045348,0.0014796853015249,-6.6367244541523e-06,2.2011046644295e-06,-2.2209386057969e-07,-4.3123208136944e-06,-0.0015764381725621,0.001570395902349,-0.0015733980662112,0.0015735220289719,-0.0015778282023723,0.0015690462572926,-0.0015753717965472,0.0015722769969787,-0.0012916741725206,0.0012770570843967,-0.001283535935979,0.0012861332363932,-1.0490813680601e-06,2.8919267177693e-06,6.1360106346501e-07,1.49224703628e-06,-0.0014811487023569,0.0014830629785046,-0.0015739573472687,0.0015740495312602,-0.0015734647807646,0.0015741077206299,-0.0015723240384548,0.0015753797471064,-0.0015718579342228,0.0015754584439889,-0.001283756704272,0.001286466817311,-0.0012825005372997,0.0012869954479573,-0.0014766181777241,0.0014745722996746,-0.0014727276341978,0.0014784590168239,4.3815405694492e-06,-4.4254088810221e-06,-0.00081204497455231,0.00081223841339007,6.6690501683705e-07,-1.2328803251494e-07,-0.000881582955205,0.00088501407915423,-0.00088193777007322,0.00088464863718279,-0.00088449813456449,0.00088199229462432,-0.0008847416470844,0.00088156049005861,-0.00095684755097534,0.00094788703787456,-0.00094829458427596,0.00095659100723094,0.68889126574525,128736,2834,0.006155078323396,0.0061558637215843,0.0033805286778676,24.778337395782,0.00011342669916626,0.00011342669916626,0.00011342669916626,1938428.3012899,0.015815660157413
30419200,0.99989929891361,0.016057606688193,0.005783849838806,0.0057845830489106,0.0044891738004764,-0.0014829264397177,0.0014784392789064,-6.6384438630003e-06,2.1783476758651e-06,-1.9890118402086e-07,-4.3630202791786e-06,-0.0015776043056355,0.0015715682955362,-0.0015745707918198,0.0015746871495503,-0.0015790186899314,0.0015701940464268,-0.0015765679951209,0.0015734168928515,-0.0012879675221013,0.0012733253186351,-0.0012798468634989,0.0012823727974254,-1.0705727011331e-06,2.9446481564463e-06,5.9781596594439e-07,1.5400639545613e-06,-0.0014798991636946,0.0014818442704664,-0.001575131360217,0.001575209063692,-0.0015746194163509,0.0015752890288779,-0.0015734751242119,0.0015765645496822,-0.001572989531877,0.0015766644387549,-0.0012800345455893,0.0012827406033372,-0.0012787220117653,0.0012833354842334,-0.0014744371425606,0.0014723700836879,-0.0014704774160485,0.0014763322571587,4.3684674779123e-06,-4.4175078693956e-06,-0.0008133139499091,0.00081349995873145,6.9322867711563e-07,-1.606578923127e-07,-0.0008789834006088,0.00088242217114831,-0.0008793596263631,0.0008820350024767,-0.00088189169146458,0.0008794066723122,-0.00088215587308244,0.00087895455383183,-0.00096037679369955,0.00095141554161284,-0.00095184939200473,0.00096009723589164,0.6766345676705,128736,2834,0.0061499950414914,0.0061507771003003,0.003385764112796,26.129009144291,0.00012423207315433,0.00012423207315433,0.00012423207315433,1999387.2482482,0.015810637989289
31419200,0.99992899240529,0.016058070815211,0.0057840175709165,0.0057847507802496,0.0044893024640445,-0.0014874686799806,0.0014829909350314,-6.658454704297e-06,2.2078781972617e-06,-2.0589087373299e-07,-4.3464026460333e-06,-0.0015826240940238,0.0015765732029604,-0.0015795741787122,0.0015797085229983,-0.0015840309754211,0.0015752067404712,-0.0015815636599084,0.00157844613639,-0.0012915519112228,0.0012768783330318,-0.0012833829081412,0.0012859753464071,-1.0633615430886e-06,2.9283012245705e-06,5.855690977882e-07,1.5431371864866e-06,-0.0014844505883895,0.0014863866546541,-0.0015801467353818,0.001580218266905,-0.0015796300514375,0.0015803033576502,-0.0015784982521037,0.0015815658635384,-0.0015780077952107,0.0015816710000997,-0.0012836190675778,0.0012862925279414,-0.0012822914702809,0.0012869028901145,-0.0014790202338792,0.0014769726870396,-0.0014750835116404,0.0014809116141355,4.3899290845414e-06,-4.4458550972903e-06,-0.00081571417793599,0.00081589369942669,6.9743996735942e-07,-1.7180810146824e-07,-0.00088102327910169,0.000884477564439,-0.00088140454269698,0.00088408544137761,-0.00088394815710938,0.00088144560677509,-0.00088421757674218,0.00088098836405336,-0.00096373002369218,0.00095470735239357,-0.00095515369204334,0.00096343841624614,0.72615477750768,128736,2834,0.0061688242338912,0.0061696060969325,0.0033957339895673,28.436007460712,0.00014268805968569,0.00014268805968569,0.00014268805968569,2008217.8777351,0.015859019219968
32419200,0.99995068862858,0.016058426847257,0.0057841459874816,0.0057848791962329,0.004489401663543,-0.0014927820042751,0.0014883257288766,-6.6859859343646e-06,2.2558037396289e-06,-2.2322268775191e-07,-4.3057143146108e-06,-0.0015864572454185,0.0015803834680222,-0.0015833830515678,0.0015835435006904,-0.0015878448219732,0.00157903630013,-0.001585353615732,0.0015823013696354,-0.0012976818115909,0.0012829678690327,-0.0012894390380345,0.0012921508082974,-1.0469199638573e-06,2.886610043147e-06,5.9158421527114e-07,1.5100148967599e-06,-0.0014897884353902,0.0014916988764769,-0.0015839667297864,0.001584045237821,-0.0015834626270594,0.0015841165933274,-0.0015823370994756,0.0015853728899069,-0.0015818587920309,0.0015854654933503,-0.0012897406421648,0.001292403929978,-0.0012884438630637,0.0012929712800068,-0.0014853923559328,0.0014833647640965,-0.0014815087291737,0.0014872448353522,4.4329039612223e-06,-4.4786459208991e-06,-0.00081571371259684,0.00081590519576132,6.8576934121365e-07,-1.4420817849041e-07,-0.00088394541790115,0.00088742103692099,-0.00088431183311343,0.00088704271388674,-0.00088689437383185,0.00088436507122802,-0.00088715115513047,0.00088391974126161,-0.00096296323589215,0.00095387973284526,-0.00095430447768093,0.00096269061830875,0.76213984998417,128736,2834,0.0061908501431662,0.0061916360169749,0.0033957944370592,29.29448690667,0.00014955589525336,0.00014955589525336,0.00014955589525336,1954435.6679905,0.015903843269387
33419200,0.99996576981763,0.016058677170554,0.0057842362809417,0.0057849694893987,0.0044894714002133,-0.0014943116522262,0.0014898146444117,-6.7219622726718e-06,2.2512136197793e-06,-1.8402126594079e-07,-4.3873220325699e-06,-0.0015873700956145,0.0015812848961239,-0.0015842842675516,0.0015844561359141,-0.0015887962706942,0.0015798976265583,-0.0015862947439403,0.0015831729714337,-0.0012996946736609,0.0012848742507329,-0.0012914242685465,0.0012940789891645,-1.0869444210578e-06,2.9671320310368e-06,5.9221550647664e-07,1.5507948338711e-06,-0.0014912772055404,0.0014932281439513,-0.0015848801938848,0.0015849452383832,-0.0015843620125645,0.0015850303518818,-0.0015832101415789,0.0015863132859267,-0.0015827186441763,0.0015864185571036,-0.0012916767370494,0.0012943852026359,-0.0012903455946394,0.0012949943143947,-0.0014872276196836,0.0014851327753148,-0.0014832275553572,0.0014891321742761,4.4444359203201e-06,-4.4986740730938e-06,-0.00081391692186166,0.00081409911215593,6.9970286999663e-07,-1.6987242311334e-07,-0.00088391973652625,0.00088741241474974,-0.00088430173556319,0.00088702063002814,-0.0008868812067497,0.00088434525158176,-0.00088715087346142,0.00088388802026328,-0.00096088641371185,0.00095175932600419,-0.00095220204335508,0.00096059300869142,0.77028159823002,128736,2834,0.0061970860869245,0.0061978708629376,0.003388338165344,29.317262035562,0.00014973809628449,0.00014973809628449,0.00014973809628449,1920628.0002906,0.015908941931061
34419200,0.99997718178527,0.016058859586438,0.0057843021932196,0.0057850354014528,0.0044895219917661,-0.0014987916474037,0.0014943042278365,-6.7438251017698e-06,2.2776575066228e-06,-1.9182572650964e-07,-4.3643939613797e-06,-0.0015920015826528,0.0015859044574093,-0.0015889028450575,0.0015890929272764,-0.001593424222028,0.001584522078792,-0.0015909019461864,0.0015878231709085,-0.0013039045044063,0.0012890457975285,-0.0012955896729849,0.0012983121974121,-1.0564923720295e-06,2.9665296756092e-06,6.0374500015129e-07,1.5572408991266e-06,-0.0014957445553332,0.001497717644386,-0.0015894883321055,0.0015895823152233,-0.0015889642147214,0.0015896647140459,-0.001587821889272,0.0015909396336699,-0.0015873254155972,0.0015910365895939,-0.0012958519364243,0.0012985648649962,-0.0012945232333339,0.0012991618212019,-0.0014916572497864,0.0014896251224937,-0.0014876849877562,0.0014935873288285,4.4536716032526e-06,-4.5370223360454e-06,-0.00081530162507062,0.00081546216502216,6.9085567058144e-07,-1.7410217074016e-07,-0.00088604594553865,0.00088953288854224,-0.00088642956858448,0.0008891460205888,-0.00088902057996067,0.00088645092753769,-0.00088929616849263,0.00088599457139753,-0.00096280537461065,0.00095360278823875,-0.00095406684949317,0.0009624773137643,0.74169710757733,128736,2834,0.0062156485487361,0.0062164069654101,0.003394067175067,31.480106691924,0.00016704085353539,0.00016704085353539,0.00016704085353539,1916181.5086619,0.015952453153528
35419200,0.99998613172517,0.016058997744293,0.0057843521971439,0.0057850854048095,0.00448956014234,-0.0015067935799676,0.0015023050948282,-6.7866027890155e-06,2.3163550539211e-06,-2.2112871931227e-07,-4.3373291534061e-06,-0.0016008129817932,0.0015946697949856,-0.0015976862816408,0.0015978947480818,-0.0016022206433467,0.0015933083898946,-0.0015996695300757,0.0015966430068381,-0.0013108391659992,0.0012959134602403,-0.0013024578821043,0.001305258330509,-1.0341426380885e-06,2.9303011972614e-06,5.9247005800439e-07,1.5490414416793e-06,-0.0015037488828888,0.0015057034750249,-0.0015982745303627,0.0015983591091141,-0.0015977414094142,0.0015984445702021,-0.0015966198689387,0.0015997018130071,-0.0015961171171563,0.0015997906265343,-0.0013027646735586,0.0013054333410175,-0.0013014378583719,0.0013060283642084,-0.001499422152141,0.0014974382238895,-0.0014955125169715,0.0015013442434586,4.458263581684e-06,-4.6149108849402e-06,-0.00082082203646782,0.00082091395012694,6.6216392324036e-07,-2.0629553146559e-07,-0.00089103607880726,0.00089448463798227,-0.00089141900993599,0.00089409108452527,-0.0008940417540358,0.00089137194191822,-0.00089431249038108,0.00089091735312308,-0.00096958140881164,0.00096023738358421,-0.00096076449713259,0.00096916501146738,0.71641844376655,128736,2834,0.0062487805297368,0.0062495127405825,0.0034168661073252,35.925106813263,0.0002026008545061,0.0002026008545061,0.0002026008545061,1945798.1843421,0.016042912017042
36419200,0.99999186275109,0.016059087965133,0.0057843848228278,0.0057851180298337,0.0044895851124711,-0.0015091768683884,0.0015047081469398,-6.7870401708087e-06,2.3446044756276e-06,-2.10898278825e-07,-4.3314841805008e-06,-0.0016040414500758,0.0015979045550349,-0.0016009028356264,0.0016011285383494,-0.0016054416126021,0.001596544779576,-0.0016028863237373,0.0015998728321515,-0.001311736487191,0.0012968179532833,-0.0013033094461142,0.0013061748749944,-1.0583095860666e-06,2.9132290334144e-06,5.7381980794998e-07,1.5446568120987e-06,-0.0015061682041224,0.0015080943974589,-0.0016015255068275,0.001601589204193,-0.0016010039401264,0.001601678646753,-0.001599882414316,0.0016029297986884,-0.001599387455196,0.0016030390196868,-0.0013036961470623,0.0013063400782302,-0.0013023552263306,0.0013069628000188,-0.0015018053290118,0.001499771893387,-0.0014978871621219,0.0015036890436431,4.5229974270177e-06,-4.579443760564e-06,-0.00082227618193399,0.00082245555713882,7.0399499228817e-07,-1.7813093153242e-07,-0.0008913172317684,0.00089486468736058,-0.00089170348380415,0.00089446878135502,-0.00089433196986079,0.0008917443922968,-0.00089460586653175,0.00089128352071838,-0.00097235567342662,0.00096306876667289,-0.0009635170407425,0.00097205673668969,0.73065039151406,128736,2834,0.0062586958082951,0.0062594775034706,0.0034230954244803,37.478875580643,0.00021503100464514,0.00021503100464514,0.00021503100464514,1961898.1716776,0.016069438176083
37419200,0.99999524769058,0.016059140429583,0.0057844038096408,0.0057851370165692,0.0044895996033728,-0.001510750888529,0.0015062886737881,-6.7942565972473e-06,2.3576549166258e-06,-2.1483866647498e-07,-4.3191966576367e-06,-0.0016052720056015,0.0015991300163569,-0.0016021282353629,0.0016023600778803,-0.0016066673924806,0.0015977741421039,-0.0016041049849744,0.0016011107791775,-0.0013133045493932,0.0012983754333282,-0.0013048569282617,0.0013077625795676,-1.0543667924397e-06,2.9012494944064e-06,5.7470466584115e-07,1.5309393706781e-06,-0.0015077505642739,0.0015096661782648,-0.0016027544678708,0.001602818676489,-0.0016022366331335,0.0016029008862182,-0.001601117227373,0.0016041525834539,-0.0016006246675254,0.0016042565767447,-0.0013052631785497,0.0013078984938982,-0.0013039293027374,0.0013085041194593,-0.0015037417099177,0.001501710413485,-0.0014998358335107,0.0015056138753207,4.5411758851612e-06,-4.5815244594855e-06,-0.00082150812178008,0.0008217065512333,7.0847843168001e-07,-1.5904954166131e-07,-0.00089144669168717,0.00089501357237071,-0.00089182886315119,0.00089462544074824,-0.00089446546211375,0.0008918876311933,-0.00089473854308954,0.00089143051246327,-0.00097155702950465,0.00096226363848974,-0.0009626948646975,0.00097128069335136,0.71959281419345,128736,2834,0.006265219481718,0.006266000333606,0.0034199627924391,37.680188805755,0.00021664151044604,0.00021664151044604,0.00021664151044604,1940468.1498889,0.016079513854396
38419200,0.99999719337077,0.01605917170663,0.005784415103524,0.0057851483104059,0.0044896082927006,-0.0015095729493702,0.0015051004839548,-6.7925016306841e-06,2.3462222449362e-06,-2.0690316506842e-07,-4.3392267683874e-06,-0.0016043672319392,0.0015982283189225,-0.0016012264237915,0.0016014547250721,-0.001605771331386,0.0015968644225583,-0.0016032136008979,0.0016001951593057,-0.0013117321275129,0.001296797955913,-0.0013032970273985,0.0013061629204465,-1.0622721435949e-06,2.9209724819005e-06,5.8054975825288e-07,1.5414587730347e-06,-0.0015065606319463,0.001508490471796,-0.0016018491823187,0.0016019158743781,-0.0016013305348782,0.0016020017267152,-0.0016002020508721,0.0016032602640026,-0.0015997099461994,0.0016033659131738,-0.0013036771965582,0.0013063377994723,-0.0013023443098196,0.0013069502971428,-0.0015025129076262,0.0015004678518043,-0.0014985829776213,0.0015043970712135,4.53025645202e-06,-4.5794173155362e-06,-0.00081989637409192,0.0008200827231934,7.0300864520666e-07,-1.6916264970572e-07,-0.0008895046473585,0.00089305736285448,-0.00088988749225977,0.00089266506404737,-0.00089252166808271,0.00088993492586682,-0.0008927926711418,0.00088947733847124,-0.00097027356718546,0.00096098875539181,-0.00096142649709426,0.00096998476621378,0.74583042850961,128736,2834,0.0062603224231321,0.0062611042879856,0.0034132468051874,37.196433269661,0.00021277146615729,0.00021277146615729,0.00021277146615729,1936161.6910811,0.016062738235224
38880000,0.99999787279466,0.016059182689704,0.0057844190672171,0.0057851522740839,0.0044896113484035,-0.0015108333318758,0.0015063399002866,-6.8045800662707e-06,2.3370502319473e-06,-1.8616882255467e-07,-4.381441845714e-06,-0.0016050225547249,0.0015988824809839,-0.0016018807553549,0.0016021098440053,-0.0016064464305936,0.001597497570849,-0.0016038882973227,0.0016008292984114,-0.001313463273472,0.0012984837211258,-0.0013050272408986,0.0013078537261964,-1.0834970314316e-06,2.9626138883778e-06,5.8004240607967e-07,1.5610885943631e-06,-0.0015078010887371,0.0015097504545708,-0.0016025078417802,0.0016025665357538,-0.00160198248546,0.0016026591124579,-0.0016008403300276,0.0016039318750451,-0.0016003415644733,0.0016040443987935,-0.0013053778616314,0.0013080591207703,-0.0013040250518579,0.0013086907270474,-0.0015041013660137,0.0015020211444387,-0.0015001092370717,0.0015060126476275,4.5274568700273e-06,-4.5851693878431e-06,-0.00081920877097196,0.00081938755477423,7.091024700802e-07,-1.8293500088971e-07,-0.00089011506286984,0.0008936683180246,-0.00089050474192755,0.00089326956317395,-0.0008931332124719,0.00089054509677806,-0.00089341085480311,0.00089008080303342,-0.00096917632762297,0.0009598724987535,-0.00096032543510178,0.00096887124171865,0.74998939206372,128736,2834,0.0062654884010449,0.0062662715848944,0.0034103904085654,37.193663116545,0.00021274930493236,0.00021274930493236,0.00021274930493236,1913234.1659844,0.016070338740867
