time,ASR_ext,ASR_strain,ASR_strain_xx,ASR_strain_yy,ASR_strain_zz,disp_x_101,disp_x_102,disp_x_103,disp_x_104,disp_x_105,disp_x_106,disp_x_p1_neg,disp_x_p1_pos,disp_x_p2_neg,disp_x_p2_pos,disp_x_p3_neg,disp_x_p3_pos,disp_x_p4_neg,disp_x_p4_pos,disp_x_p5_neg,disp_x_p5_pos,disp_x_p6_neg,disp_x_p6_pos,disp_y_101,disp_y_102,disp_y_103,disp_y_104,disp_y_105,disp_y_106,disp_y_p1_neg,disp_y_p1_pos,disp_y_p2_neg,disp_y_p2_pos,disp_y_p3_neg,disp_y_p3_pos,disp_y_p4_neg,disp_y_p4_pos,disp_y_p5_neg,disp_y_p5_pos,disp_y_p6_neg,disp_y_p6_pos,disp_y_p7_neg,disp_y_p7_pos,disp_y_p8_neg,disp_y_p8_pos,disp_z_101,disp_z_102,disp_z_103,disp_z_104,disp_z_105,disp_z_106,disp_z_p1_neg,disp_z_p1_pos,disp_z_p2_neg,disp_z_p2_pos,disp_z_p3_neg,disp_z_p3_pos,disp_z_p4_neg,disp_z_p4_pos,disp_z_p5_neg,disp_z_p5_pos,disp_z_p6_neg,disp_z_p6_pos,humidity,ndof,nelem,strain_xx,strain_yy,strain_zz,temp,thermal_strain_xx,thermal_strain_yy,thermal_strain_zz,vonmises,vstrain
2419200,0,0,0,0,0,0,0,0,0,0,0,0,0,0,0,0,0,0,0,0,0,0,0,0,0,0,0,0,0,0,0,0,0,0,0,0,0,0,0,0,0,0,0,0,0,0,0,0,0,0,0,0,0,0,0,0,0,0,0,0,0,0,0,0,0,0,0,0,0,0,0,0,0,0,0
3419200,0.1585461308059,0.003001615956962,0.0010005386523207,0.0010005386523207,0.0010005386523207,-0.00028382329024879,0.00028382329024703,-8.029901750837e-16,-7.7350578169403e-16,4.2231062811196e-16,-3.4142706963739e-15,-0.00028601426412907,0.00028601426414005,-0.0002860148544279,0.00028601485442805,-0.00028601427002813,0.00028601427003676,-0.00028601484852556,0.000286014848525,-0.00027963188989728,0.00027963188990064,-0.00027963240350546,0.00027963240351996,-4.4653635862076e-15,-5.8504258805825e-16,-4.5265916208595e-10,4.5265436742659e-10,-0.00028382329024969,0.000283823290246,-0.00028601445609748,0.00028601412434882,-0.00028601466246863,0.00028601499421136,-0.00028601445608993,0.00028601412434472,-0.00028601466247269,0.00028601499422306,-0.00027963236546738,0.00027963149019618,-0.00027963192794039,0.00027963280321093,-0.0002829764861278,0.000282976798486,-0.0002829764861167,0.00028297679848343,-2.8447656457614e-09,-2.8447656749937e-09,-0.0002681059152876,0.00026809855900397,-2.3182675099821e-09,-3.2794932500559e-09,-0.00027213544560489,0.00027212961475267,-0.00027213577515577,0.00027212928521267,-0.000272135445606,0.00027212961475893,-0.00027213577514988,0.00027212928522117,-0.00027123405577463,0.00027122779617177,-0.00027123405577648,0.00027122779618796,0.75746877217741,120135,2834,0.001181895447107,0.0011818954471068,0.0011164689245762,31.790822006558,0.00016952657605247,0.00016952657605247,0.00016952657605247,1072484.8258858,0.0034863243223944
4419200,0.35032262733461,0.0065066218764864,0.002221333005904,0.0022213330059111,0.0020639558646713,-0.00058476241915333,0.00058476241914833,-3.2229309534364e-15,-3.1862556032549e-15,-9.3136860615193e-16,-6.6972218750571e-15,-0.0005946765228123,0.0005946765228252,-0.00059467850090541,0.00059467850090539,-0.00059467655017229,0.00059467655018313,-0.00059467847353793,0.00059467847352934,-0.00056484078441627,0.0005648407844128,-0.00056484254577413,0.00056484254577407,-1.3363121177586e-15,9.0040511042944e-16,-1.2526504887433e-09,1.252645629694e-09,-0.00058476241915316,0.00058476241915158,-0.00059467708401485,0.00059467615454929,-0.00059467793971418,0.00059467886917334,-0.0005946770839992,0.00059467615453447,-0.00059467793971858,0.00059467886918396,-0.00056484212206021,0.0005648396976115,-0.00056484120811466,0.000564843632577,-0.00058364441781607,0.00058364529097664,-0.00058364441781206,0.00058364529098027,-6.8635450968395e-09,-6.8635450573069e-09,-0.00050902580048816,0.00050900925535531,-5.3204880741018e-09,-8.0630129550183e-09,-0.00052024690657875,0.00052023291330464,-0.00052024785424956,0.00052023196565511,-0.00052024690658479,0.00052023291331745,-0.00052024785423809,0.00052023196567092,-0.00052723147448452,0.00052721653859329,-0.00052723147448975,0.00052721653860617,0.73992840791513,120135,2834,0.0024335315070056,0.002433531507012,0.0021186909803101,33.599136409022,0.00018399309127217,0.00018399309127217,0.00018399309127217,2087318.7219468,0.0070102227618413
5419200,0.55089185265298,0.010068723420141,0.0035121208037446,0.003512120803746,0.0030444818126506,-0.00090578068599492,0.00090578068599688,2.618272954735e-15,3.0500832926373e-15,4.612270862997e-15,-5.6607976547527e-15,-0.00092691758640662,0.00092691758641933,-0.00092691893482232,0.00092691893483199,-0.00092691762614372,0.00092691762614987,-0.00092691889508523,0.00092691889508216,-0.00085992887012752,0.00085992887013224,-0.00085992916687693,0.00085992916688502,-4.7004446399369e-16,8.3899383737484e-15,-6.2749300282343e-10,6.2749597854991e-10,-0.0009057806859935,0.00090578068599907,-0.00092691788968343,0.00092691742902791,-0.00092691863155373,0.00092691909221225,-0.00092691788967615,0.00092691742902321,-0.00092691863155603,0.00092691909221657,-0.0008599295183622,0.00085992832390701,-0.00085992851861083,0.00085992971310411,-0.00090725662410987,0.00090725711143721,-0.00090725662410426,0.00090725711144789,-4.0472686830601e-09,-4.0472683048785e-09,-0.00072537717984162,0.00072536698661581,-3.1590385240415e-09,-4.6647108002429e-09,-0.00074514225151485,0.00074513300024844,-0.00074514277410657,0.00074513247767611,-0.00074514225152302,0.00074513300026203,-0.00074514277409467,0.00074513247769152,-0.00076823672343098,0.00076822806874605,-0.0007682367234403,0.00076822806876313,0.72499638738019,120135,2834,0.0037669266143105,0.0037669266143121,0.0030179986094619,36.267290515776,0.00020533832412621,0.00020533832412621,0.00020533832412621,2670839.5656745,0.010607751180994
6419200,0.70737273576517,0.012346455643956,0.0043652644198377,0.0043652644198342,0.0036159268042843,-0.0011189314766887,0.001118931476689,9.9746952799061e-16,8.4826820363571e-16,4.0030247691646e-15,-8.4764763435838e-15,-0.0011579527818572,0.0011579527818725,-0.0011579539155776,0.0011579539155861,-0.0011579528157046,0.0011579528157089,-0.0011579538817362,0.0011579538817312,-0.0010396762287743,0.0010396762287771,-0.0010396764736203,0.0010396764736235,-2.62680210594e-15,6.6294275306866e-15,-3.9252286952626e-10,3.925189279706e-10,-0.0011189314766884,0.0011189314766868,-0.0011579529596605,0.0011579526864687,-0.0011579537377986,0.0011579540109791,-0.0011579529596453,0.0011579526864618,-0.0011579537377985,0.0011579540109842,-0.0010396766032426,0.0010396758724966,-0.001039676099123,0.0010396768298851,-0.0011196129474243,0.0011196132787359,-0.0011196129474164,0.0011196132787512,-3.5244320534157e-09,-3.5244320451674e-09,-0.0008344987192576,0.00083449016760128,-2.9385003735218e-09,-3.92150860031e-09,-0.00086469288156884,0.00086468491572515,-0.0008646932199553,0.0008646845773493,-0.0008646928815723,0.00086468491573601,-0.00086469321994065,0.00086468457736062,-0.0008982049737816,0.00089819771441534,-0.00089820497379708,0.0008981977144297,0.59839168540088,120135,2834,0.0046512673409303,0.0046512673409252,0.0034714414530058,36.7385014369,0.0002091080114952,0.0002091080114952,0.0002091080114952,3099695.9045556,0.012856004505252
7419200,0.83258560021944,0.013939070593946,0.0049664989131604,0.0049664989131556,0.0040060727676299,-0.0012776509112766,0.0012776509112737,-6.2115749465315e-16,-7.1609577082457e-16,2.9532038992951e-15,-9.0734286953346e-15,-0.0013340188917696,0.0013340188917793,-0.001334020054311,0.0013340200543163,-0.0013340189252442,0.0013340189252445,-0.0013340200208408,0.0013340200208291,-0.0011680473461314,0.0011680473461286,-0.0011680477298857,0.0011680477298873,-2.3193997321656e-15,6.0058995317044e-15,-3.4551629288728e-10,3.4551328193141e-10,-0.0012776509112738,0.0012776509112741,-0.0013340190594373,0.001334018814968,-0.0013340198866568,0.0013340201311188,-0.0013340190594248,0.0013340188149601,-0.0013340198866563,0.0013340201311212,-0.0011680476902707,0.0011680470503238,-0.0011680473857194,0.0011680480256811,-0.0012775436968133,0.0012775439958841,-0.0012775436968058,0.0012775439958948,-4.0156639304941e-09,-4.0156638103741e-09,-0.00090379231231942,0.00090378252210669,-3.4623938345392e-09,-4.3564664817335e-09,-0.00093975627644993,0.00093974727483988,-0.00093975658683155,0.00093974696447489,-0.00093975627645458,0.00093974727485173,-0.00093975658682022,0.00093974696448747,-0.00098708465204483,0.00098707636677369,-0.00098708465205411,0.00098707636678869,0.52694121020036,120135,2834,0.0053092535132152,0.0053092535132103,0.0037594039150662,40.76181799345,0.0002412945439476,0.0002412945439476,0.0002412945439476,3168793.0735378,0.014481935929935
7919200,0.8797128354267,0.014492743700438,0.0051757923477072,0.0051757923477024,0.0041411590050281,-0.0013318718261511,0.0013318718261492,-1.1476120000647e-16,-2.0999358484013e-16,2.9351456274335e-15,-8.3156871379367e-15,-0.0013951835257415,0.0013951835257519,-0.0013951844470223,0.0013951844470276,-0.0013951835568464,0.0013951835568487,-0.0013951844159205,0.0013951844159111,-0.0012092663027975,0.0012092663027967,-0.0012092665693184,0.0012092665693207,-2.149110816728e-15,5.2952306401292e-15,-1.2783487478144e-10,1.2783177627551e-10,-0.0013318718261488,0.001331871826149,-0.0013951836055488,0.0013951835175891,-0.0013951843672298,0.0013951844551805,-0.0013951836055361,0.0013951835175808,-0.0013951843672291,0.0013951844551834,-0.0012092664238978,0.0012092662057135,-0.0012092664481907,0.0012092666663922,-0.0013318810567933,0.0013318812065608,-0.001331881056787,0.001331881206572,-2.9352233408761e-09,-2.9352232011813e-09,-0.00092044784808616,0.00092044085394004,-2.6273209267815e-09,-3.0633450713373e-09,-0.00095881231581749,0.0009588055672216,-0.00095881247007626,0.00095880541297961,-0.00095881231582224,0.00095880556723349,-0.00095881247006405,0.00095880541299029,-0.0010123216500048,0.0010123157836831,-0.0010123216500143,0.0010123157836985,0.48708931878001,120135,2834,0.0055339236074459,0.0055339236074408,0.0038286911644079,40.955812159841,0.00024284649727873,0.00024284649727873,0.00024284649727873,3129393.8369775,0.015008246298475
8919200,0.93529743992992,0.015046535011826,0.0053853114820832,0.0053853114820783,0.0042759120476646,-0.0013903152469286,0.0013903152469267,-8.699734229091e-17,-1.632303075438e-16,2.9128227799694e-15,-8.084370675084e-15,-0.0014621539660498,0.0014621539660602,-0.0014621548504228,0.0014621548504281,-0.0014621539971287,0.001462153997131,-0.0014621548193462,0.0014621548193371,-0.0012510489218455,0.0012510489218453,-0.0012510491937637,0.0012510491937662,-2.1826980259559e-15,4.9254752194513e-15,3.819946111529e-11,-3.8202588461043e-11,-0.0013903152469264,0.0013903152469264,-0.0014621539931438,0.0014621540138307,-0.0014621548233431,0.0014621548026475,-0.0014621539931312,0.0014621540138224,-0.0014621548233424,0.00146215480265,-0.0012510488841079,0.0012510489914098,-0.0012510492314751,0.0012510491241903,-0.0013909606788606,0.0013909607181185,-0.0013909606788542,0.0013909607181288,-2.9097643213457e-09,-2.9097641832604e-09,-0.00092490189103299,0.00092489499597885,-2.7635924266925e-09,-2.869212052159e-09,-0.00096756286210941,0.00096755609606191,-0.00096756290696183,0.0009675560512259,-0.00096756286211431,0.00096755609607377,-0.0009675629069502,0.00096755605123688,-0.0010281860068369,0.0010281803121797,-0.0010281860068464,0.0010281803121949,0.41296021651308,120135,2834,0.0057760157053758,0.0057760157053708,0.0038474114569894,41.890706059659,0.00025032564847727,0.00025032564847727,0.00025032564847727,2939302.4730035,0.015518873047685
9919200,0.96369680281284,0.015322096583991,0.0054886352235976,0.0054886352235928,0.0043448261368007,-0.0014149114719377,0.0014149114719357,-2.554627840226e-16,-3.2604886296046e-16,2.6770064545845e-15,-8.0449601143437e-15,-0.0014906222682178,0.001490622268228,-0.001490622864229,0.0014906228642341,-0.0014906222964038,0.0014906222964061,-0.001490622836046,0.0014906228360364,-0.0012670921738666,0.001267092173866,-0.0012670923059245,0.0012670923059266,-1.9918803258939e-15,4.8058958072629e-15,3.0216733947808e-10,-3.0217061063423e-10,-0.0014149114719355,0.0014149114719355,-0.001490622187951,0.0014906223985665,-0.0014906229445098,0.0014906227338862,-0.0014906221879385,0.001490622398558,-0.0014906229445093,0.0014906227338889,-0.0012670918636267,0.001267092483149,-0.0012670926161382,0.0012670919966319,-0.0014165503992404,0.0014165502579627,-0.0014165503992347,0.0014165502579725,-1.589900183178e-09,-1.5899000433509e-09,-0.00091939136768147,0.00091938779373328,-1.7435533925377e-09,-1.2920834430172e-09,-0.00096391910099933,0.00096391507218683,-0.0009639189556749,0.0009639152175276,-0.00096391910100406,0.00096391507219861,-0.000963918955663,0.0009639152175383,-0.0010293648084704,0.0010293620605391,-0.0010293648084799,0.0010293620605539,0.40055244745217,120135,2834,0.0058778765371874,0.0058778765371824,0.0038246869992338,39.826481441782,0.00023381185153425,0.00023381185153425,0.00023381185153425,2822226.3687403,0.015702712131119
10919200,0.97880112336014,0.015461609114918,0.0055407440570622,0.0055407440570573,0.0043801210007983,-0.0014274334660742,0.0014274334660722,-2.6763888263938e-16,-3.3493094456014e-16,2.5525102578579e-15,-7.946698410289e-15,-0.0015047896662827,0.0015047896662928,-0.0015047902435178,0.0015047902435228,-0.0015047896950674,0.0015047896950698,-0.0015047902147361,0.0015047902147267,-0.001274872280211,0.0012748722802103,-0.0012748724105372,0.0012748724105396,-1.7607109173724e-15,4.8221268716172e-15,5.9932479476823e-10,-5.993275196928e-10,-0.0014274334660718,0.0014274334660721,-0.0015047894918734,0.0015047898970153,-0.0015047904179412,0.0015047900127912,-0.0015047894918609,0.0015047898970068,-0.0015047904179406,0.0015047900127937,-0.0012748716823382,0.001274872884899,-0.0012748730083834,0.0012748718058391,-0.0014300027449638,0.0014300024062549,-0.0014300027449584,0.001430002406265,-1.5023756610658e-09,-1.5023755244002e-09,-0.00091082780408132,0.00091082444288029,-1.9447283622805e-09,-9.0494333170534e-10,-0.00095848807367849,0.00095848402283411,-0.00095848773345416,0.00095848436307453,-0.00095848807368315,0.00095848402284595,-0.00095848773344238,0.00095848436308529,-0.001024762537823,0.0010247601657669,-0.0010247625378322,0.0010247601657819,0.38048843952028,120135,2834,0.0059297144997123,0.0059297144997072,0.0037892553908554,37.955126658296,0.00021884101326637,0.00021884101326637,0.00021884101326637,2705600.1098276,0.015772043039328
11919200,0.98740802349267,0.015551055234293,0.0055739092067551,0.0055739092067502,0.004403236820788,-0.0014358567557656,0.0014358567557636,-2.0634663742834e-16,-2.6816827823141e-16,2.5145114186963e-15,-7.7423811226301e-15,-0.0015140272843026,0.0015140272843128,-0.0015140279336524,0.0015140279336574,-0.0015140273145549,0.0015140273145574,-0.0015140279034029,0.0015140279033937,-0.001280550115837,0.0012805501158366,-0.0012805502818666,0.0012805502818691,-1.8045331080464e-15,4.5351865910304e-15,8.0507006994996e-10,-8.0507311180435e-10,-0.0014358567557633,0.0014358567557634,-0.0015140270521063,0.0015140275865497,-0.0015140281658627,0.0015140276314111,-0.0015140270520939,0.001514027586541,-0.0015140281658622,0.0015140276314136,-0.0012805493250991,0.0012805509336629,-0.0012805510725784,0.0012805494640307,-0.0014391144651072,0.0014391139917366,-0.0014391144651018,0.0014391139917463,-1.8423047352684e-09,-1.8423046032413e-09,-0.00090612374269961,0.00090611952657955,-2.4714778202403e-09,-1.0337941736359e-09,-0.00095548886016307,0.00095548392241432,-0.00095548838999296,0.00095548439260056,-0.00095548886016781,0.00095548392242625,-0.00095548838998116,0.00095548439261129,-0.0010226873136,0.0010226843671826,-0.0010226873136091,0.0010226843671975,0.4268724117517,120135,2834,0.0059645850885894,0.0059645850885843,0.0037698001856754,37.104680975894,0.00021203744780715,0.00021203744780715,0.00021203744780715,2635338.2352375,0.01582312689978
12919200,0.99236624041014,0.015600124544229,0.0055921032990529,0.005592103299048,0.0044159179461278,-0.0014413165963024,0.0014413165963004,-2.4416901139254e-16,-3.1240222103247e-16,2.438219631711e-15,-7.6638246989455e-15,-0.0015195882287016,0.0015195882287117,-0.0015195888568789,0.0015195888568839,-0.001519588259138,0.0015195882591406,-0.0015195888264453,0.0015195888264361,-0.0012844641787394,0.0012844641787389,-0.0012844643253896,0.0012844643253922,-1.7310647642185e-15,4.4624383538803e-15,9.5293358520233e-10,-9.5293659876088e-10,-0.0014413165963002,0.0014413165963002,-0.0015195879488356,0.0015195885806533,-0.0015195891367588,0.001519588504933,-0.0015195879488233,0.0015195885806446,-0.0015195891367583,0.0015195885049353,-0.001284463244494,0.0012844651432169,-0.0012844652596091,0.001284463360902,-0.001445184179726,0.0014451836080753,-0.0014451841797208,0.001445183608085,-1.739342597662e-09,-1.7393424632229e-09,-0.00089802036386149,0.00089801641525613,-2.5135569737216e-09,-7.8190508992446e-10,-0.00095134384247152,0.00095133900522348,-0.0009513432748322,0.0009513395728789,-0.00095134384247638,0.00095133900523544,-0.00095134327482033,0.00095133957288969,-0.0010161227352288,0.0010161201076718,-0.0010161227352379,0.0010161201076868,0.40627070885187,120135,2834,0.0059871680923369,0.0059871680923319,0.0037362493177949,36.135729026249,0.00020428583220999,0.00020428583220999,0.00020428583220999,2536164.5227707,0.01583493530619
13919200,0.99514037005443,0.015626778169978,0.0056019620980423,0.0056019620980374,0.0044228539738981,-0.0014399008282864,0.0014399008282845,-2.4658070242292e-16,-3.0610829566051e-16,2.3910446022875e-15,-7.5560926959666e-15,-0.0015188572097181,0.0015188572097282,-0.0015188577074195,0.0015188577074244,-0.0015188572391822,0.0015188572391849,-0.0015188576779582,0.001518857677949,-0.0012813222218814,0.001281322221881,-0.0012813223050928,0.0012813223050954,-1.6112448952215e-15,4.4196137774909e-15,1.1510467578237e-09,-1.1510496476057e-09,-0.0014399008282842,0.0014399008282843,-0.001518856856781,0.0015188576258292,-0.0015188580603704,0.0015188572913143,-0.0015188568567687,0.0015188576258204,-0.0015188580603699,0.0015188572913165,-0.0012813210881742,0.0012813233732526,-0.0012813234387743,0.0012813211537117,-0.0014440166942731,0.0014440159888551,-0.001444016694268,0.0014440159888643,-1.1356051249553e-09,-1.1356049958704e-09,-0.00089080122876834,0.00089079880100824,-2.121231594625e-09,1.7587462920963e-11,-0.00094420358025923,0.00094419993741527,-0.00094420287530282,0.00094420064238752,-0.00094420358026396,0.00094419993742726,-0.00094420287529105,0.0009442006423984,-0.0010104408211275,0.0010104395952587,-0.0010104408211365,0.0010104395952734,0.39395082495196,120135,2834,0.005981299500987,0.0059812995009819,0.003706315673629,33.832413043936,0.00018585930435149,0.00018585930435149,0.00018585930435149,2515242.0539348,0.015792605226406
14919200,0.9967014982369,0.015642046456953,0.00560759982738,0.0056075998273751,0.0044268468021981,-0.0014356696144666,0.0014356696144647,-2.4052206398075e-16,-3.0334367423545e-16,2.3521046154068e-15,-7.4904770534206e-15,-0.001514967373644,0.0015149673736541,-0.001514967779931,0.0015149677799358,-0.0015149674026621,0.0015149674026648,-0.0015149677509156,0.0015149677509065,-0.0012760282154692,0.0012760282154689,-0.0012760282566403,0.0012760282566429,-1.563540470206e-15,4.3627508546877e-15,1.3909117700344e-09,-1.3909146669565e-09,-0.0014356696144644,0.0014356696144645,-0.001514966937575,0.0015149678688508,-0.0015149682160138,0.0015149672847303,-0.0015149669375628,0.0015149678688419,-0.0015149682160135,0.0015149672847325,-0.0012760268441919,0.0012760295983665,-0.0012760296278919,0.0012760268737329,-0.0014400359787698,0.0014400351125854,-0.0014400359787649,0.0014400351125945,-6.9432193903259e-10,-6.9432180665129e-10,-0.00088217261892261,0.00088217129393496,-1.9261758526205e-09,6.9799257824703e-10,-0.00093593655617922,0.00093593371711855,-0.00093593568872466,0.00093593458458867,-0.00093593655618404,0.00093593371713043,-0.00093593568871295,0.00093593458459952,-0.0010027955963402,0.0010027954533972,-0.0010027955963493,0.0010027954534121,0.40081297763593,120135,2834,0.0059637691629279,0.0059637691629228,0.003670522488851,30.577799198389,0.00015982239358711,0.00015982239358711,0.00015982239358711,2499438.5091092,0.015720635749682
15919200,0.99755154021336,0.015654734971724,0.0056122489175514,0.0056122489175465,0.0044302371366261,-0.0014277697545926,0.0014277697545909,-1.7293589339775e-16,-2.3511046459552e-16,2.3328699088962e-15,-7.3348641602289e-15,-0.001507132870679,0.0015071328706892,-0.0015071331024223,0.0015071331024271,-0.0015071328985872,0.0015071328985902,-0.0015071330745167,0.0015071330745076,-0.0012674038459928,0.0012674038459929,-0.0012674037968661,0.0012674037968689,-1.6360088445822e-15,4.1187754839789e-15,1.743307030161e-09,-1.7433103774856e-09,-0.0014277697545906,0.0014277697545903,-0.0015071323091582,0.0015071334812267,-0.0015071336639569,0.00150713249188,-0.0015071323091461,0.0015071334812179,-0.0015071336639564,0.0015071324918821,-0.0012674021231457,0.0012674055655608,-0.0012674055196885,0.001267402077288,-0.0014324359500071,0.0014324348467813,-0.0014324359500023,0.0014324348467902,1.551179370791e-10,1.5511806754363e-10,-0.00086908132264445,0.00086908212708825,-1.4443443438306e-09,1.8972195109521e-09,-0.00092396050385308,0.00092395926892169,-0.00092395939546775,0.00092396037732345,-0.00092396050385797,0.00092395926893385,-0.00092395939545588,0.00092396037733431,-0.00099055139918876,0.00099055327214133,-0.00099055139919784,0.0009905532721562,0.6105949319646,120135,2834,0.005931038098558,0.0059310380985527,0.003616211123289,25.366097556981,0.00011812878045585,0.00011812878045585,0.00011812878045585,2479444.4557345,0.015598988583873
16919200,0.99813860026279,0.015664984264518,0.0056160079821911,0.0056160079821862,0.0044329683001404,-0.0014306363011527,0.0014306363011511,-2.4234553768665e-17,-9.2056011281457e-17,2.3688982200208e-15,-7.2908066826252e-15,-0.0015088651623232,0.0015088651623334,-0.0015088657061422,0.0015088657061475,-0.0015088651938962,0.0015088651938995,-0.0015088656745719,0.0015088656745632,-0.0012702941655963,0.0012702941655965,-0.0012702942569696,0.0012702942569729,-1.5394823816347e-15,4.2252127195267e-15,1.7646457133775e-09,-1.7646487063698e-09,-0.0014306363011507,0.0014306363011507,-0.0015088646208127,0.0015088657870295,-0.001508866247667,0.0015088650814423,-0.0015088646208006,0.0015088657870205,-0.0015088662476667,0.0015088650814445,-0.0012702924424195,0.0012702959341237,-0.0012702959801215,0.0012702924884329,-0.0014360397004261,0.0014360385896163,-0.0014360397004215,0.0014360385896255,-1.2993314421135e-09,-1.2993313174966e-09,-0.00085290305851571,0.00085290022566838,-2.8715474533876e-09,4.7590644259074e-10,-0.00091645455873223,0.00091645007700401,-0.00091645345475608,0.00091645118099609,-0.00091645455873705,0.00091645007701608,-0.00091645345474425,0.0009164511810068,-0.00097488827434518,0.0009748871171633,-0.00097488827435444,0.00097488711717839,0.71401690074734,120135,2834,0.0059428474648286,0.0059428474648238,0.0035491805349375,23.782524812033,0.00010546019849626,0.00010546019849626,0.00010546019849626,2311023.6816765,0.015554919938118
17919200,0.99850104328503,0.015669453561421,0.0056176560406131,0.0056176560406082,0.0044341414801993,-0.0014250338413918,0.0014250338413901,-6.2409858127556e-17,-1.3587820195538e-16,2.305282516378e-15,-7.275954195182e-15,-0.0015038826586898,0.0015038826587001,-0.0015038829426299,0.0015038829426349,-0.0015038826880876,0.0015038826880908,-0.0015038829132348,0.0015038829132261,-0.0012623584757329,0.0012623584757331,-0.0012623584181046,0.0012623584181077,-1.4576025300668e-15,4.2378252708028e-15,1.9289942384937e-09,-1.9289967497455e-09,-0.0014250338413896,0.0014250338413898,-0.0015038820463658,0.0015038833341079,-0.0015038835549678,0.0015038822672183,-0.0015038820463538,0.001503883334099,-0.0015038835549674,0.0015038822672205,-0.0012623565798406,0.0012623603891977,-0.0012623603139712,0.0012623565046301,-0.0014309561012984,0.001430954876922,-0.0014309561012938,0.001430954876931,-1.4722226602069e-10,-1.4722213149435e-10,-0.00083448578023925,0.00083448589782749,-1.9125135159661e-09,1.7859704255206e-09,-0.00090050893868558,0.00090050683053125,-0.00090050771422141,0.0009005080550106,-0.0009005089386904,0.00090050683054315,-0.00090050771420961,0.00090050805502144,-0.00095865577620601,0.00095865717214979,-0.00095865577621529,0.00095865717216496,0.50452036832971,120135,2834,0.0059196166801917,0.0059196166801867,0.0034728033725048,19.502938192476,7.1223505539811e-05,7.1223505539811e-05,7.1223505539811e-05,2232278.4560397,0.015430182223062
18919200,0.99875576127357,0.015673304110664,0.0056190620487239,0.005619062048719,0.0044351800132213,-0.0014164202499145,0.0014164202499128,-1.7740634506382e-16,-2.5940384009663e-16,2.3255466032064e-15,-7.2161030824159e-15,-0.0014977815155846,0.0014977815155945,-0.0014977819305124,0.0014977819305174,-0.0014977815466011,0.0014977815466042,-0.0014977818994981,0.0014977818994893,-0.0012501834611571,0.0012501834611573,-0.0012501835263946,0.0012501835263975,-1.5154242930634e-15,4.09391014755e-15,2.0039206343331e-09,-2.003923563439e-09,-0.0014164202499124,0.0014164202499124,-0.0014977808896728,0.0014977822190066,-0.0014977825564378,0.0014977812270964,-0.0014977808896606,0.0014977822189976,-0.0014977825564374,0.0014977812270985,-0.0012501815005369,0.0012501854599013,-0.0012501854869898,0.0012501815276407,-0.0014222012122708,0.0014221999409094,-0.0014222012122657,0.0014221999409182,-7.846615238157e-10,-7.8466136736914e-10,-0.00083505452238392,0.00083505298463399,-2.6059321755608e-09,1.2291431763726e-09,-0.00089130569473889,0.00089130228340135,-0.00089130442722643,0.0008913035509294,-0.00089130569474378,0.00089130228341343,-0.00089130442721483,0.00089130355094019,-0.00096198168537743,0.00096198176939119,-0.00096198168538645,0.00096198176940601,0.61713023305391,120135,2834,0.0058840012880272,0.0058840012880221,0.0034750624652639,16.88341027354,5.0267282188321e-05,5.0267282188321e-05,5.0267282188321e-05,2354919.3226319,0.015360124378307
19919200,0.99898815247601,0.015676922998689,0.0056203891340251,0.0056203891340202,0.0044361447306439,-0.0014232249830038,0.0014232249830022,-8.2762177554639e-17,-1.6681843322314e-16,2.2941063872128e-15,-7.235014269398e-15,-0.0015034990199505,0.0015034990199607,-0.0015034998458102,0.0015034998458152,-0.001503499054784,0.0015034990547871,-0.0015034998109795,0.0015034998109708,-0.0012578558181268,0.0012578558181271,-0.001257856072405,0.0012578560724081,-1.308018864451e-15,4.3143586060156e-15,1.7576681109335e-09,-1.7576706707315e-09,-0.0014232249830017,0.0014232249830019,-0.001503498504757,0.0015034996486316,-0.0015035003610178,0.0015034992171357,-0.001503498504745,0.0015034996486225,-0.0015035003610175,0.0015034992171379,-0.0012578541211368,0.0012578576061896,-0.0012578577693701,0.0012578542843329,-0.0014295940029675,0.001429592903013,-0.0014295940029631,0.0014295929030219,-2.655764972522e-09,-2.6557648237665e-09,-0.00083240556534305,0.00083239930778885,-4.178646910617e-09,-8.7616264677374e-10,-0.00089401472681225,0.000894007348771,-0.0008940136435407,0.00089400843205805,-0.0008940147268171,0.00089400734878296,-0.00089401364352897,0.00089400843206887,-0.00095870105559156,0.00095869704367702,-0.0009587010556007,0.00095869704369196,0.63658889967781,120135,2834,0.0059121494618847,0.0059121494618797,0.0034641271968877,18.682653964601,6.4661231716805e-05,6.4661231716805e-05,6.4661231716805e-05,2249565.6103899,0.015406196622046
20919200,0.99916374300087,0.015679599484291,0.005621368916083,0.0056213689160781,0.0044368616521301,-0.0014214746449085,0.0014214746449066,-2.4234553768665e-16,-3.1763735522036e-16,2.2318435834164e-15,-7.2771894515634e-15,-0.001502116646991,0.001502116647001,-0.0015021171731089,0.0015021171731138,-0.0015021166785604,0.0015021166785634,-0.001502117141542,0.0015021171415331,-0.0012549698975586,0.0012549698975584,-0.0012549699977723,0.0012549699977751,-1.4207213038217e-15,4.1796018082213e-15,1.7558456328495e-09,-1.7558484058232e-09,-0.0014214746449063,0.0014214746449063,-0.0015021161084946,0.001502117268843,-0.001502117711619,0.0015021165512629,-0.0015021161084824,0.001502117268834,-0.0015021177116186,0.001502116551265,-0.0012549681841062,0.0012549716588614,-0.0012549717111996,0.0012549682364597,-0.001428047075573,0.0014280459708493,-0.0014280470755683,0.001428045970858,-1.3049185041033e-09,-1.3049183624339e-09,-0.00082587727936005,0.00082587445118625,-2.8682619582278e-09,4.6227539752451e-10,-0.00088794634236984,0.0008879419048236,-0.0008879452442066,0.00088794300300244,-0.00088794634237477,0.00088794190483563,-0.00088794524419492,0.00088794300301336,-0.00095324967398447,0.00095324850855756,-0.00095324967399332,0.00095324850857219,0.62261669282111,120135,2834,0.0059048922821751,0.00590489228217,0.003437057413682,17.27293982572,5.3383518605761e-05,5.3383518605761e-05,5.3383518605761e-05,2221512.0614666,0.01536397290958
21919200,0.9992851964037,0.015681409876297,0.0056220313147828,0.0056220313147779,0.0044373472467358,-0.0014154778890881,0.0014154778890855,-4.8563222309247e-16,-5.6215929700759e-16,1.9857628657193e-15,-7.5285053034484e-15,-0.0014962225990681,0.0014962225990768,-0.001496223122998,0.0014962231230022,-0.0014962226306339,0.0014962226306359,-0.0014962230914311,0.0014962230914215,-0.0012487930744514,0.0012487930744506,-0.0012487931743165,0.0012487931743189,-2.3283994572302e-15,3.2441904142686e-15,1.7568069317416e-09,-1.7568115732447e-09,-0.001415477889087,0.001415477889084,-0.0014962220602313,0.0014962232212406,-0.0014962236618505,0.0014962225008262,-0.0014962220602185,0.0014962232212313,-0.0014962236618501,0.001496222500828,-0.0012487913599791,0.0012487948365822,-0.0012487948887655,0.0012487914121735,-0.0014221359264634,0.0014221348210812,-0.0014221359264584,0.0014221348210896,-6.9902016078265e-10,-6.9902001565364e-10,-0.00081800768351046,0.00081800642765946,-2.2867966725784e-09,1.0768728649791e-09,-0.00087979951762106,0.00087979646362972,-0.0008797984077642,0.00087979757349785,-0.00087979951762509,0.00087979646364146,-0.00087979840775197,0.00087979757350848,-0.0009458346598514,0.00094583486752009,-0.00094583465986113,0.00094583486753528,0.60875358308609,120135,2834,0.0058800509628522,0.0058800509628471,0.0034043899346599,14.002198961224,2.7217591689795e-05,2.7217591689795e-05,2.7217591689795e-05,2212347.3634716,0.015280359196919
22919200,0.99939709199325,0.015682934832649,0.0056225898637536,0.0056225898637487,0.0044377551051469,-0.001418141400684,0.0014181414006825,-5.6821793544976e-17,-1.335841543899e-16,2.3705746393955e-15,-7.1411936061431e-15,-0.0014991655437395,0.0014991655437497,-0.001499165952552,0.0014991659525572,-0.0014991655743908,0.0014991655743943,-0.0014991659219032,0.0014991659218948,-0.0012508733809068,0.001250873380907,-0.001250873377884,0.0012508733778872,-9.9579310861584e-16,4.6140290239004e-15,1.7729421781038e-09,-1.7729437636692e-09,-0.0014181414006816,0.0014181414006825,-0.0014991649929054,0.0014991661698099,-0.0014991665033996,0.0014991653264886,-0.0014991649928931,0.0014991661698012,-0.0014991665033993,0.0014991653264909,-0.0012508716466198,0.0012508751540414,-0.0012508751121448,0.0012508716047407,-0.0014248151982015,0.0014248140810771,-0.0014248151981969,0.0014248140810862,-1.961534648644e-09,-1.9615345048791e-09,-0.0008190494824528,0.00081904490987834,-3.5072446819942e-09,-1.9633446599919e-10,-0.00088057119422565,0.0008805652404828,-0.00088057010294838,0.00088056633177569,-0.00088057119423054,0.00088056524049498,-0.00088057010293701,0.0008805663317869,-0.00094717278166294,0.00094717011050701,-0.00094717278167134,0.00094717011052118,0.55669926264336,120135,2834,0.0058910856981895,0.0058910856981844,0.0034087111414813,15.354918178872,3.8039345430977e-05,3.8039345430977e-05,3.8039345430977e-05,2203972.8781989,0.015307151791739
23919200,0.99950027968968,0.015684765859397,0.0056232568786967,0.0056232568786919,0.0044382521020086,-0.0014210591701471,0.0014210591701452,-2.7234462123524e-16,-3.4763643876895e-16,2.2239908821346e-15,-7.3065414960551e-15,-0.0015028757841999,0.0015028757842099,-0.0015028765837696,0.0015028765837745,-0.0015028758185634,0.0015028758185663,-0.0015028765494086,0.0015028765493997,-0.0012521978699449,0.0012521978699446,-0.0012521981172886,0.0012521981172914,-1.3416060736789e-15,4.2720143113695e-15,1.5695075963065e-09,-1.5695101184881e-09,-0.0014210591701449,0.0014210591701451,-0.001502875327907,0.0015028763494049,-0.0015028770400763,0.0015028760185709,-0.0015028753278948,0.0015028763493959,-0.0015028770400759,0.001502876018573,-0.001252196354457,0.0012521994693736,-0.0012521996327509,0.0012521965178502,-0.001427959272367,0.0014279582966832,-0.0014279592723624,0.0014279582966919,-2.6019872426066e-09,-2.6019870960509e-09,-0.00082336160799684,0.00082335550981353,-3.9426580736346e-09,-1.0130754520933e-09,-0.00088246794365705,0.00088246082760393,-0.00088246698385922,0.00088246178741753,-0.00088246794366186,0.000882460827616,-0.00088246698384753,0.00088246178742843,-0.00095270322649534,0.00095269920941732,-0.00095270322650418,0.00095269920943185,0.72396878325088,120135,2834,0.0059031863330643,0.0059031863330593,0.0034266000082799,17.007419687465,5.1259357499721e-05,5.1259357499721e-05,5.1259357499721e-05,2221348.7153421,0.015349882774758
24919200,0.99959205778725,0.015686101707698,0.0056237464317162,0.0056237464317114,0.0044386088442708,-0.0014271365076163,0.0014271365076143,-2.8728534127708e-16,-3.8057660893995e-16,2.2616956126339e-15,-7.2884538133272e-15,-0.0015078957973301,0.0015078957973402,-0.0015078965653421,0.0015078965653469,-0.0015078958308129,0.0015078958308158,-0.0015078965318619,0.0015078965318528,-0.0012589375502219,0.0012589375502215,-0.0012589377718508,0.0012589377718534,-1.4016630625085e-15,4.2465262917573e-15,1.4653967151166e-09,-1.4653991376541e-09,-0.0014271365076139,0.0014271365076142,-0.001507895370161,0.0015078963260333,-0.0015078969925246,0.0015078960366452,-0.0015078953701487,0.0015078963260243,-0.0015078969925243,0.0015078960366472,-0.0012589361326198,0.0012589390426215,-0.0012589391894269,0.0012589362794417,-0.001434495732571,0.0014344948252936,-0.0014344957325663,0.0014344948253023,-2.4787916174989e-09,-2.4787914612988e-09,-0.00081742432425591,0.00081741855129962,-3.7245426900863e-09,-9.964583988358e-10,-0.00088307934843561,0.00088307254985394,-0.00088307845449758,0.00088307344380783,-0.00088307934844058,0.00088307254986611,-0.00088307845448592,0.00088307344381877,-0.00094641743437814,0.00094641361241314,-0.00094641743438691,0.00094641361242757,0.59464798027023,120135,2834,0.0059283104833175,0.0059283104833124,0.0034020477646343,18.349104939673,6.1992839517383e-05,6.1992839517383e-05,6.1992839517383e-05,2102329.3891403,0.015375989211091
25919200,0.99967660012154,0.015687547520387,0.0056242721126835,0.0056242721126786,0.0044390032950246,-0.001429627463253,0.0014296274632511,-2.5816858371522e-16,-3.32813362192e-16,2.2343729179117e-15,-7.2948947930303e-15,-0.0015117984789194,0.0015117984789294,-0.0015117993428552,0.0015117993428599,-0.0015117985133793,0.0015117985133822,-0.0015117993083979,0.001511799308389,-0.0012594953151986,0.0012594953151983,-0.0012594955947963,0.001259495594799,-1.3598996324703e-15,4.2484875714555e-15,1.2967977888632e-09,-1.296800269539e-09,-0.0014296274632506,0.0014296274632509,-0.0015117981143318,0.0015117989534435,-0.0015117997074563,0.0015117988683371,-0.0015117981143196,0.0015117989534345,-0.0015117997074559,0.0015117988683391,-0.0012594940676182,0.001259496648302,-0.0012594968423511,0.0012594942616834,-0.0014368181649054,0.0014368173712643,-0.0014368181649006,0.001436817371273,-2.9499169775526e-09,-2.9499168312716e-09,-0.00082540259576106,0.00082539564285947,-4.0154080131297e-09,-1.6342023670189e-09,-0.00088557569815964,0.00088556800878542,-0.00088557492126445,0.00088556878569592,-0.00088557569816442,0.00088556800879746,-0.00088557492125269,0.00088556878570674,-0.0009558869865345,0.00095588206288525,-0.00095588698654336,0.00095588206289969,0.69720981015325,120135,2834,0.0059386648307048,0.0059386648306997,0.0034351162376404,20.729228430619,8.1033827444955e-05,8.1033827444955e-05,8.1033827444955e-05,2159586.4246383,0.015430580117077
26919200,0.99974551072495,0.015688736156568,0.0056247053953854,0.0056247053953805,0.0044393253658021,-0.001433067510364,0.001433067510362,-3.4922462554505e-16,-4.2116360432922e-16,2.1970211178071e-15,-7.3445697460828e-15,-0.0015145254501517,0.0015145254501617,-0.0015145261422334,0.0015145261422382,-0.0015145254823988,0.0015145254824016,-0.0015145261099889,0.0015145261099798,-0.0012633900567921,0.0012633900567918,-0.0012633902422046,0.0012633902422074,-1.4589554299131e-15,4.183327797336e-15,1.2554701834998e-09,-1.2554728966869e-09,-0.0014330675103618,0.0014330675103618,-0.0015145250837975,0.0015145259065857,-0.0015145265086015,0.0015145256858054,-0.0015145250837853,0.0015145259065767,-0.001514526508601,0.0015145256858075,-0.0012633888378724,0.0012633913338274,-0.0012633914610988,0.0012633889651596,-0.0014406505199053,0.0014406497502219,-0.0014406505199005,0.0014406497502305,-2.1714990378147e-09,-2.1714989003756e-09,-0.00082108964387913,0.00082108466536603,-3.2230868351008e-09,-9.0383584956757e-10,-0.00088545177108746,0.00088544579207672,-0.0008854510113053,0.00088544655187455,-0.00088545177109242,0.00088544579208894,-0.00088545101129355,0.00088544655188547,-0.00095126289920542,0.00095125959099852,-0.00095126289921432,0.00095125959101314,0.70377665155898,120135,2834,0.0059528822868383,0.0059528822868332,0.0034172745784024,21.292092388794,8.5536739110351e-05,8.5536739110351e-05,8.5536739110351e-05,2082077.3392087,0.015441347432348
27919200,0.99980415649677,0.01568982387932,0.0056251006508359,0.005625100650831,0.0044396225776534,-0.0014365548225352,0.0014365548225333,-2.8052084204554e-16,-3.5069516885626e-16,2.2085795882331e-15,-7.292747799796e-15,-0.0015183773789612,0.0015183773789713,-0.0015183781679907,0.0015183781679955,-0.0015183774121092,0.0015183774121122,-0.0015183781348453,0.0015183781348363,-0.0012659841098825,0.0012659841098823,-0.0012659843501716,0.0012659843501744,-1.4688963026968e-15,4.1235407910674e-15,1.1647022045927e-09,-1.1647049766838e-09,-0.001436554822533,0.001436554822533,-0.0015183770493675,0.0015183778068751,-0.0015183784975982,0.0015183777400829,-0.0015183770493553,0.0015183778068661,-0.0015183784975978,0.0015183777400849,-0.0012659829845402,0.0012659853042521,-0.0012659854754888,0.0012659831557925,-0.0014442594229376,0.0014442587152985,-0.0014442594229329,0.0014442587153072,-2.6394445859115e-09,-2.6394444493427e-09,-0.00082209078812897,0.00082208463505526,-3.5885387424723e-09,-1.4601360992709e-09,-0.00088623904323299,0.00088623211561483,-0.00088623834850448,0.0008862328103588,-0.00088623904323781,0.00088623211562695,-0.00088623834849281,0.00088623281036981,-0.00095304176541444,0.00095303741214746,-0.00095304176542326,0.00095303741216193,0.75604148014822,120135,2834,0.0059673252593436,0.0059673252593386,0.0034214433688517,22.916050946233,9.8528407569861e-05,9.8528407569861e-05,9.8528407569861e-05,2061499.0072672,0.015474911607102
28919200,0.99985160383633,0.015690668578736,0.005625407810228,0.0056254078102231,0.0044398529582844,-0.0014397592280657,0.0014397592280636,-3.7040044922641e-16,-4.3892776752858e-16,2.1705219273391e-15,-7.3088061327543e-15,-0.0015215897927237,0.0015215897927335,-0.0015215905267285,0.0015215905267333,-0.0015215898251314,0.0015215898251343,-0.0015215904943233,0.0015215904943143,-0.0012686780460546,0.0012686780460543,-0.0012686782562034,0.001268678256206,-1.4328385807061e-15,4.1412402733383e-15,1.1177087518265e-09,-1.1177113780265e-09,-0.0014397592280634,0.0014397592280635,-0.0015215894735502,0.0015215902035577,-0.0015215908459157,0.0015215901159006,-0.001521589473538,0.0015215902035487,-0.0015215908459153,0.0015215901159026,-0.0012686769628456,0.0012686791891365,-0.0012686793393868,0.0012686771131118,-0.001447714010568,0.0014477133330143,-0.0014477140105631,0.0014477133330228,-2.4026184066591e-09,-2.4026182720728e-09,-0.00082035574495201,0.00082035019822102,-3.3137647681581e-09,-1.2726956328014e-09,-0.00088595499367479,0.00088594860933427,-0.00088595432687113,0.00088594927615335,-0.0008859549936798,0.00088594860934648,-0.00088595432685945,0.00088594927616435,-0.00095177219151167,0.00095176830862095,-0.00095177219152046,0.00095176830863545,0.72577449252184,120135,2834,0.0059805843693057,0.0059805843693007,0.0034142755667466,23.982999246743,0.00010706399397395,0.00010706399397395,0.00010706399397395,2017347.9035976,0.015494564758594
29919200,0.999890068274,0.01569133871681,0.0056256511955971,0.0056256511955922,0.0044400363256211,-0.0014423502767387,0.0014423502767368,-2.7605039037947e-16,-3.4587178679551e-16,2.1924036118099e-15,-7.2777482580217e-15,-0.0015247515090725,0.0015247515090825,-0.00152475228135,0.0015247522813548,-0.0015247515418223,0.0015247515418252,-0.0015247522486027,0.0015247522485938,-0.0012702162937788,0.0012702162937786,-0.0012702165278372,0.00127021652784,-1.4311327504651e-15,4.1284992792949e-15,1.055840497494e-09,-1.0558432774277e-09,-0.0014423502767365,0.0014423502767365,-0.001524751212892,0.0015247518999682,-0.0015247525775444,0.0015247518904603,-0.0015247512128798,0.0015247518999592,-0.001524752577544,0.0015247518904623,-0.0012702152729093,0.0012702173784849,-0.0012702175486812,0.0012702154431213,-0.0014503970259034,0.0014503963901151,-0.0014503970258987,0.0014503963901239,-2.5955666744623e-09,-2.5955665368122e-09,-0.00082273419812698,0.00082272816985655,-3.4405768524153e-09,-1.5267270283608e-09,-0.00088678564234092,0.00088677888983997,-0.00088678501846785,0.00088677951372858,-0.00088678564234583,0.00088677888985209,-0.00088678501845613,0.00088677951373945,-0.00095499121914348,0.00095498688993127,-0.0009549912191524,0.00095498688994588,0.70999701566689,120135,2834,0.0059913248928248,0.0059913248928198,0.0034241438990186,25.463549713788,0.0001189083977103,0.0001189083977103,0.0001189083977103,2017416.9569086,0.015526396117918
30919200,0.99992071883421,0.015691895327116,0.0056258531506238,0.0056258531506189,0.0044401890258734,-0.0014455800777741,0.0014455800777722,-2.6981528673996e-16,-3.3763674425276e-16,2.1852861821836e-15,-7.2648662986155e-15,-0.0015281916259189,0.0015281916259289,-0.0015281924153618,0.0015281924153666,-0.0015281916587327,0.0015281916587356,-0.0015281923825505,0.0015281923825417,-0.0012730103440538,0.0012730103440536,-0.0012730105876858,0.0012730105876886,-1.4302504244784e-15,4.1063267029754e-15,9.9689068584284e-10,-9.9689336921319e-10,-0.0014455800777719,0.001445580077772,-0.0015281913498551,0.0015281919973042,-0.0015281926914394,0.0015281920439826,-0.0015281913498429,0.0015281919972951,-0.0015281926914391,0.0015281920439846,-0.0012730093813305,0.0012730113715103,-0.0012730115503835,0.0012730095602194,-0.0014537257402238,0.0014537251438355,-0.0014537257402192,0.0014537251438442,-2.6864425769877e-09,-2.686442440351e-09,-0.00082552429403044,0.00082551804112766,-3.4714643350592e-09,-1.6765438545302e-09,-0.00088901467380702,0.00088900776569402,-0.00088901408969169,0.0008890083498247,-0.00088901467381196,0.00088900776570615,-0.00088901408968002,0.0008890083498356,-0.00095810294316414,0.00095809838440775,-0.0009581029431729,0.00095809838442234,0.7399361211588,120135,2834,0.0060047048747611,0.006004704874756,0.0034357272761617,27.119850487263,0.0001321588038981,0.0001321588038981,0.0001321588038981,2009651.8533237,0.015565334134338
31919200,0.99994491390609,0.015692341351759,0.0056260149464128,0.0056260149464079,0.0044403114589385,-0.001450453915612,0.0014504539156103,-2.2511077007932e-16,-2.9475570129801e-16,2.213814722421e-15,-7.1772807390001e-15,-0.0015329438411631,0.0015329438411732,-0.0015329446792537,0.0015329446792585,-0.0015329438742858,0.0015329438742889,-0.0015329446461335,0.0015329446461247,-0.0012778139370745,0.0012778139370744,-0.0012778142034578,0.0012778142034608,-1.4518380002869e-15,4.0260302704065e-15,9.1232542083924e-10,-9.1232820926048e-10,-0.00145045391561,0.0014504539156099,-0.0015329435956761,0.0015329441849534,-0.0015329449247546,0.0015329443354692,-0.001532943595664,0.0015329441849444,-0.0015329449247543,0.0015329443354712,-0.0012778130590344,0.0012778148842332,-0.0012778150814728,0.0012778132562896,-0.0014587455007156,0.0014587449613297,-0.001458745500711,0.0014587449613383,-2.9209652831205e-09,-2.9209651457257e-09,-0.00082761116029826,0.00082760432113116,-3.6168634176288e-09,-1.994834922383e-09,-0.00089223064684058,0.00089222328269603,-0.00089223012091306,0.0008922238086389,-0.00089223064684541,0.00089222328270818,-0.00089223012090138,0.00089222380864974,-0.00096025666097885,0.00096025155425619,-0.00096025666098773,0.00096025155427078,0.7510827120325,120135,2834,0.0060248814698945,0.0060248814698895,0.0034444127926436,29.265255664266,0.00014932204531413,0.00014932204531413,0.00014932204531413,1976910.1506849,0.015615139842731
32919200,0.99996166234767,0.015692616300136,0.005626114792126,0.0056261147921211,0.0044403867158885,-0.0014505012982343,0.0014505012982325,-2.5493338843057e-16,-3.2340188500029e-16,2.185197949585e-15,-7.2053975271104e-15,-0.0015330343445854,0.0015330343445954,-0.0015330351826403,0.0015330351826451,-0.0015330343776902,0.0015330343776932,-0.0015330351495379,0.001533035149529,-0.0012777498771522,0.0012777498771521,-0.0012777501419171,0.0012777501419199,-1.4049570795256e-15,4.0742162409133e-15,9.0512487033932e-10,-9.0512757219824e-10,-0.0014505012982322,0.0014505012982322,-0.0015330341013821,0.0015330346859452,-0.0015330354258573,0.0015330348412864,-0.00153303410137,0.0015330346859362,-0.001533035425857,0.0015330348412884,-0.0012777490061001,0.0012777508171597,-0.0012777510129439,0.0012777492019,-0.001458819573542,0.0014588190389252,-0.0014588195735373,0.0014588190389338,-2.1980837013003e-09,-2.1980835639677e-09,-0.00082581968920799,0.00082581473445564,-2.9149808771734e-09,-1.2698937189274e-09,-0.00089078093645411,0.00089077522345886,-0.00089078040204154,0.00089077575788669,-0.00089078093645898,0.000890775223471,-0.00089078040202984,0.0008907757578976,-0.0009586670697767,0.00095866359875933,-0.00095866706978555,0.00095866359877393,0.66890277800231,120135,2834,0.0060250730318727,0.0060250730318677,0.0034369894222138,29.173922906868,0.00014859138325494,0.00014859138325494,0.00014859138325494,1954906.585003,0.015607989791179
33919200,0.99997375212509,0.015692835195947,0.0056261940158824,0.0056261940158775,0.0044404471641869,-0.0014513711719849,0.001451371171983,-2.8857941939094e-16,-3.5298921642174e-16,2.1863743842339e-15,-7.248925609122e-15,-0.0015346304522493,0.0015346304522593,-0.0015346311656691,0.0015346311656739,-0.0015346304840602,0.0015346304840632,-0.0015346311338606,0.0015346311338517,-0.0012774274932855,0.0012774274932853,-0.0012774277046283,0.0012774277046312,-1.3656053405178e-15,4.1516428737446e-15,9.2049374466618e-10,-9.2049632067698e-10,-0.0014513711719826,0.0014513711719828,-0.0015346301942898,0.0015346307962471,-0.0015346314236421,0.0015346308216773,-0.0015346301942776,0.0015346307962381,-0.0015346314236418,0.0015346308216793,-0.0012774265996983,0.0012774284381487,-0.0012774285981902,0.0012774267597557,-0.0014597213567466,0.0014597208094863,-0.0014597213567419,0.0014597208094949,-2.3576571537642e-09,-2.3576570182553e-09,-0.0008294015931142,0.00082939618035601,-3.079665995656e-09,-1.4274940483014e-09,-0.00089155209230643,0.00089154596630009,-0.00089155155402967,0.0008915465045922,-0.00089155209231129,0.00089154596631227,-0.00089155155401801,0.00089154650460309,-0.00096309773967874,0.00096309382626889,-0.00096309773968753,0.00096309382628354,0.73730748580442,120135,2834,0.0060286956683034,0.0060286956682983,0.0034518323651029,30.07186017311,0.00015577488138488,0.00015577488138488,0.00015577488138488,1991086.3873494,0.01563041658503
34919200,0.99998322210836,0.015693011806642,0.0056262580104723,0.0056262580104675,0.0044404957857019,-0.0014594379413697,0.0014594379413679,-2.1040533696727e-16,-2.719328691081e-16,2.2057561450756e-15,-7.2690426416193e-15,-0.0015420905643819,0.001542090564392,-0.0015420915396666,0.0015420915396715,-0.0015420905986623,0.0015420905986652,-0.0015420915053887,0.0015420915053798,-0.0012861718915685,0.0012861718915685,-0.0012861722266263,0.0012861722266293,-1.4901897698431e-15,4.0771898977723e-15,7.5390001094156e-10,-7.5390287941137e-10,-0.0014594379413675,0.0014594379413676,-0.0015420903802386,0.0015420908576007,-0.0015420917238237,0.0015420912464538,-0.0015420903802265,0.0015420908575917,-0.0015420917238234,0.0015420912464559,-0.0012861711752204,0.0012861726923891,-0.0012861729429492,0.0012861714257961,-0.0014679652237104,0.001467964792066,-0.0014679652237058,0.0014679647920749,-3.5694144487232e-09,-3.5694143201662e-09,-0.00083339303226387,0.00083338456899066,-4.0916313151337e-09,-2.7983497848938e-09,-0.00089839268944976,0.00089838402433753,-0.00089839227509412,0.00089838443870894,-0.00089839268945469,0.00089838402434969,-0.00089839227508231,0.00089838443871969,-0.00096652621770691,0.00096651964614535,-0.00096652621771612,0.00096651964616027,0.75966333801359,120135,2834,0.0060620841225895,0.0060620841225845,0.0034684361350422,33.573074331971,0.00018378459465577,0.00018378459465577,0.00018378459465577,1935897.201313,0.015715110794193
35919200,0.99999016692503,0.015693139730523,0.0056263043056634,0.0056263043056586,0.0044405311192007,-0.0014674520871513,0.0014674520871493,-3.9339974661366e-16,-4.4792749259316e-16,2.1748453246741e-15,-7.3220410225552e-15,-0.0015501573395138,0.0015501573395236,-0.001550158366279,0.0015501583662839,-0.0015501573739515,0.0015501573739543,-0.0015501583318439,0.0015501583318349,-0.0012939138425208,0.0012939138425204,-0.0012939142014657,0.0012939142014684,-1.3436648343146e-15,4.2456445402016e-15,5.862730980622e-10,-5.8627551473693e-10,-0.001467452087149,0.0014674520871492,-0.0015501572124706,0.001550157577182,-0.0015501584933356,0.001550158128617,-0.0015501572124584,0.0015501575771729,-0.0015501584933352,0.001550158128619,-0.0012939132916454,0.0012939144806993,-0.001293914752315,0.0012939135632772,-0.0014760484341066,0.0014760481145891,-0.0014760484341017,0.0014760481145978,-3.8291030958398e-09,-3.8291029734149e-09,-0.00083944603845024,0.00083943692977815,-4.1807379715306e-09,-3.2255654985264e-09,-0.00090497678438421,0.00090496766720427,-0.00090497648298373,0.00090496796862006,-0.00090497678438916,0.00090496766721645,-0.0009049764829721,0.00090496796863098,-0.00097279625410451,0.00097278902744858,-0.0009727962541133,0.00097278902746314,0.74999929572479,120135,2834,0.0060952688958562,0.0060952688958512,0.0034935828698115,37.529018334106,0.00021543214667285,0.00021543214667285,0.00021543214667285,1906500.1289505,0.01580806996048
36919200,0.99999414788227,0.015693203080465,0.0056263272626468,0.0056263272626419,0.0044405485551766,-0.0014662486025365,0.0014662486025346,-3.2728411934187e-16,-3.8240008264585e-16,2.1868743689597e-15,-7.2886302785246e-15,-0.0015492574461829,0.0015492574461929,-0.0015492580002258,0.0015492580002306,-0.001549257475715,0.0015492574757179,-0.0015492579706963,0.0015492579706873,-0.001292041518261,0.0012920415182607,-0.0012920416481231,0.0012920416481259,-1.4094863529241e-15,4.1543271897185e-15,7.4262820986955e-10,-7.4263079969398e-10,-0.0014662486025342,0.0014662486025344,-0.001549257231145,0.0015492577265109,-0.0015492582152774,0.0015492577199039,-0.0015492572311328,0.0015492577265019,-0.0015492582152771,0.001549257719906,-0.0012920407864327,0.001292042271945,-0.0012920423799258,0.0012920408944294,-0.0014749361710182,0.0014749357383531,-0.0014749361710135,0.0014749357383618,-1.6708173828233e-09,-1.670817259709e-09,-0.00083700891898019,0.00083700526021206,-2.2429786697619e-09,-9.2634472817207e-10,-0.00090210576441171,0.00090210124615619,-0.00090210533415546,0.00090210167642778,-0.00090210576441662,0.00090210124616834,-0.00090210533414381,0.00090210167643872,-0.00097091405520524,0.00097091147274496,-0.00097091405521399,0.00097091147275945,0.64796848759399,120135,2834,0.0060902863152677,0.0060902863152626,0.0034834799947613,36.859574884585,0.00021007659907668,0.00021007659907668,0.00021007659907668,1902799.5622043,0.015787683793585
37919200,0.99999658160128,0.01569323899511,0.0056263402746733,0.0056263402746684,0.004440558445768,-0.0014664358337393,0.0014664358337373,-3.3493094456014e-16,-3.8522352580336e-16,2.1571693940734e-15,-7.2936007149165e-15,-0.0015500884503708,0.0015500884503807,-0.0015500891541137,0.0015500891541184,-0.0015500884817623,0.0015500884817651,-0.0015500891227246,0.0015500891227157,-0.0012915217348474,0.0012915217348471,-0.0012915219454986,0.0012915219455013,-1.4180155041291e-15,4.1117752957158e-15,7.8833910001928e-10,-7.8834182450906e-10,-0.001466435833737,0.0014664358337371,-0.0015500882334396,0.001550088749504,-0.0015500893710586,0.0015500888549863,-0.0015500882334274,0.0015500887494949,-0.0015500893710582,0.0015500888549884,-0.0012915209680511,0.0012915225466791,-0.0012915227122696,0.0012915211336571,-0.0014750109333217,0.0014750104734081,-0.001475010933317,0.0014750104734168,-2.3471526285867e-09,-2.3471525060433e-09,-0.00084177801755123,0.00084177264491724,-2.9421801511954e-09,-1.5510214078018e-09,-0.00090358729992687,0.00090358129512524,-0.00090358684789826,0.00090358174716939,-0.00090358729993184,0.00090358129513737,-0.00090358684788666,0.00090358174718028,-0.00097618722979901,0.00097618325366689,-0.00097618722980776,0.00097618325368138,0.60087736858174,120135,2834,0.0060910853734362,0.0060910853734312,0.0035032340410135,37.672009662037,0.0002165760772963,0.0002165760772963,0.0002165760772963,1945241.9586985,0.015809365472042
38880000,0.99999794822228,0.015693262935475,0.0056263489271734,0.0056263489271685,0.0044405650811331,-0.0014651397709608,0.0014651397709589,-3.0504950447644e-16,-3.541656510707e-16,2.1706689816703e-15,-7.2731601628907e-15,-0.0015487322581618,0.0015487322581717,-0.0015487328326184,0.0015487328326232,-0.0015487322882891,0.001548732288292,-0.0015487328024936,0.0015487328024846,-0.0012905296274455,0.0012905296274453,-0.0012905297755025,0.0012905297755053,-1.4166037825504e-15,4.1074194430305e-15,9.0151062392244e-10,-9.0151332663302e-10,-0.0014651397709586,0.0014651397709586,-0.0015487319944642,0.0015487325925556,-0.0015487330963296,0.0015487324982305,-0.0015487319944521,0.0015487325925466,-0.0015487330963293,0.0015487324982326,-0.0012905287431008,0.0012905305411837,-0.0012905306598217,0.0012905288617546,-0.0014736687362013,0.0014736681987244,-0.0014736687361966,0.0014736681987331,-1.7343911415011e-09,-1.7343910202507e-09,-0.00084257385660873,0.00084257001680724,-2.4590446677263e-09,-8.2845872878687e-10,-0.00090378533654167,0.00090378059628211,-0.00090378480260139,0.0009037811302378,-0.00090378533654656,0.00090378059629423,-0.00090378480258972,0.00090378113024868,-0.00097668259057019,0.00097667997483358,-0.000976682590579,0.00097667997484819,0.71321963924284,120135,2834,0.0060857233883272,0.0060857233883222,0.0035065248179893,37.196355313314,0.00021277084250651,0.00021277084250651,0.00021277084250651,1962215.0868896,0.015801813997074
