time,ASR_ext,ASR_strain,ASR_strain_xx,ASR_strain_yy,ASR_strain_zz,disp_x_101,disp_x_102,disp_x_103,disp_x_104,disp_x_105,disp_x_106,disp_x_p1_neg,disp_x_p1_pos,disp_x_p2_neg,disp_x_p2_pos,disp_x_p3_neg,disp_x_p3_pos,disp_x_p4_neg,disp_x_p4_pos,disp_x_p5_neg,disp_x_p5_pos,disp_x_p6_neg,disp_x_p6_pos,disp_y_101,disp_y_102,disp_y_103,disp_y_104,disp_y_105,disp_y_106,disp_y_p1_neg,disp_y_p1_pos,disp_y_p2_neg,disp_y_p2_pos,disp_y_p3_neg,disp_y_p3_pos,disp_y_p4_neg,disp_y_p4_pos,disp_y_p5_neg,disp_y_p5_pos,disp_y_p6_neg,disp_y_p6_pos,disp_y_p7_neg,disp_y_p7_pos,disp_y_p8_neg,disp_y_p8_pos,disp_z_101,disp_z_102,disp_z_103,disp_z_104,disp_z_105,disp_z_106,disp_z_p1_neg,disp_z_p1_pos,disp_z_p2_neg,disp_z_p2_pos,disp_z_p3_neg,disp_z_p3_pos,disp_z_p4_neg,disp_z_p4_pos,disp_z_p5_neg,disp_z_p5_pos,disp_z_p6_neg,disp_z_p6_pos,humidity,ndof,nelem,strain_xx,strain_yy,strain_zz,temp,thermal_strain_xx,thermal_strain_yy,thermal_strain_zz,vonmises,vstrain
2419200,0,0,0,0,0,0,0,0,0,0,0,0,0,0,0,0,0,0,0,0,0,0,0,0,0,0,0,0,0,0,0,0,0,0,0,0,0,0,0,0,0,0,0,0,0,0,0,0,0,0,0,0,0,0,0,0,0,0,0,0,0,0,0,0,0,0,0,0,0,0,0,0,0,0,0
3419200,0.15948214599816,0.0027503555261721,0.00091678517539069,0.00091678517539069,0.00091678517539069,-0.00026356662429659,0.00026356662441909,-2.9719020045514e-13,4.0981275256054e-13,-1.5464065083427e-13,2.8798752203183e-13,-0.00026521893378703,0.00026521893352727,-0.0002652189345535,0.00026521893477178,-0.00026521893364865,0.00026521893367477,-0.00026521893440718,0.00026521893490915,-0.00025922511543463,0.00025922511499491,-0.00025922511532175,0.00025922511626591,1.4529944355468e-13,-2.9626347951261e-13,-2.9748955453963e-12,2.8272425101967e-12,-0.00026356662443265,0.00026356662428551,-0.00026521893463312,0.00026521893269992,-0.00026521893370177,0.00026521893562508,-0.00026521893476862,0.0002652189325506,-0.00026521893383816,0.00026521893547606,-0.00025922511818873,0.00025922511223283,-0.00025922511312843,0.00025922511851209,-0.00026250322484552,0.00026250322707322,-0.00026250322527299,0.0002625032266158,-3.2879279197998e-12,-3.9906758449452e-12,-0.00024924510267179,0.00024924509270714,-7.3392353502214e-13,-6.5665792999216e-12,-0.00025243902482423,0.0002524390190657,-0.00025243902679369,0.00025243901711818,-0.00025243902506508,0.00025243901884093,-0.00025243902704547,0.00025243901689453,-0.00025183787350449,0.00025183786302969,-0.00025183787278157,0.00025183786368801,0.78394949833458,128637,2834,0.0010975893324159,0.0010975893324211,0.0010379820877766,31.85638050276,0.00017005104402208,0.00017005104402208,0.00017005104402208,1016753.0678275,0.0032383942720027
4419200,0.35122110624487,0.0059894776145729,0.0020438459134777,0.0020438459134906,0.0019017857876045,-0.00054159318019372,0.00054159318051605,-1.8404564223785e-13,4.9131288778735e-13,-1.260678840068e-13,4.7239445102673e-13,-0.0005498276618475,0.00054982766173935,-0.00054982766478459,0.00054982766514892,-0.00054982766166538,0.00054982766193866,-0.00054982766458174,0.00054982766531991,-0.00052292097055312,0.0005229209703966,-0.00052292097281838,0.00052292097397955,9.5257178193888e-14,-5.0013103585073e-13,-7.6768444949325e-12,7.2807974304965e-12,-0.00054159318055817,0.00054159318015815,-0.00054982766440644,0.00054982765922778,-0.0005498276625903,0.00054982766734077,-0.00054982766457864,0.00054982765902415,-0.00054982766276405,0.00054982766713597,-0.00052292097806236,0.00052292096285401,-0.00052292096641724,0.0005229209804687,-0.00053920957942091,0.00053920958458987,-0.00053920957997854,0.00053920958396473,-8.2074696405406e-12,-8.8707435931077e-12,-0.00047186937859937,0.00047186935723785,-1.0421966321965e-12,-1.6086863005907e-11,-0.00048313932068773,0.00048313930753419,-0.00048313932575901,0.00048313930251297,-0.00048313932092399,0.00048313930733423,-0.00048313932602066,0.00048313930231568,-0.00048711100359651,0.00048711097997283,-0.00048711100289646,0.00048711098057525,0.77879974056846,128637,2834,0.0022540826620735,0.0022540826620871,0.0019642161326714,33.605182783968,0.00018404146227174,0.00018404146227174,0.00018404146227174,1941991.7361525,0.0064933837739115
5419200,0.55164863690144,0.009320064343384,0.0032412065806993,0.003241206580713,0.0028376511819717,-0.0008403154238003,0.00084031542412392,-1.789072992107e-13,4.969632887009e-13,-5.6186754121465e-14,3.9622995427041e-13,-0.0008611224667332,0.00086112246667166,-0.00086112246863235,0.00086112246904239,-0.00086112246659356,0.00086112246682212,-0.00086112246848636,0.00086112246917852,-0.0007952948125251,0.00079529481233821,-0.00079529481305219,0.00079529481418686,2.4550485293644e-14,-4.2569004021102e-13,-6.7840568651731e-12,6.3931080680987e-12,-0.00084031542416316,0.00084031542376795,-0.00086112246900379,0.00086112246440625,-0.00086112246681177,0.00086112247090184,-0.00086112246913439,0.00086112246425556,-0.00086112246694267,0.00086112247074669,-0.00079529481910254,0.00079529480567441,-0.00079529480748182,0.00079529481985003,-0.00083718787263576,0.00083718787705337,-0.00083718787305538,0.00083718787659079,-4.7351557088459e-12,-5.3992529977036e-12,-0.00067722054034539,0.0006772205272712,1.4824355655522e-12,-1.1731430656964e-11,-0.00069647224848024,0.00069647224080085,-0.00069647225292397,0.00069647223639815,-0.00069647224871353,0.00069647224059637,-0.0006964722531773,0.00069647223619639,-0.00071503768990549,0.00071503767409301,-0.00071503768923402,0.00071503767471988,0.77317316851068,128637,2834,0.0034951510823229,0.0034951510823372,0.002817924439332,36.275699200737,0.0002054055936059,0.0002054055936059,0.0002054055936059,2620856.7478739,0.0098565190498671
6419200,0.70790510158522,0.011751287989266,0.0041423677587612,0.0041423677587737,0.0034665524717312,-0.0010646555569138,0.0010646555572746,-1.6074761868236e-13,5.1533481569865e-13,-6.9935745863911e-14,4.4745021305607e-13,-0.0011019072485624,0.001101907248517,-0.0011019072499968,0.0011019072504205,-0.0011019072483912,0.001101907248683,-0.0011019072498352,0.0011019072505872,-0.0009858524219388,0.00098585242180574,-0.00098585242200249,0.00098585242319248,4.9282965027483e-14,-4.6572600481212e-13,-6.2956330861039e-12,5.8894693013438e-12,-0.0010646555573027,0.0010646555568921,-0.0011019072506477,0.0011019072463944,-0.0011019072483654,0.0011019072521274,-0.001101907250803,0.0011019072462223,-0.0011019072485202,0.001101907251951,-0.00098585242805384,0.00098585241556141,-0.00098585241699219,0.00098585242834935,-0.0010580179881501,0.0010580179922802,-0.0010580179886345,0.001058017991752,-3.5444859240406e-12,-4.2093689949019e-12,-0.0007993063713819,0.00079930636174586,2.1267649258502e-12,-1.0054556531376e-11,-0.00082900455108873,0.00082900454600002,-0.00082900455518512,0.00082900454194164,-0.00082900455132008,0.00082900454579454,-0.00082900455543647,0.00082900454173874,-0.0008580889197012,0.00085808890707384,-0.00085808891902741,0.00085808890769946,0.7291208270722,128637,2834,0.004426144794335,0.0044261447943482,0.0033252868939839,36.740036521412,0.0002091202921713,0.0002091202921713,0.0002091202921713,3038524.3846491,0.012252125573945
7419200,0.83294837755643,0.013631509449014,0.0048489958849374,0.0048489958849495,0.003933517679127,-0.0012488122102247,0.0012488122105753,-1.6548188581845e-13,5.1068881057209e-13,-6.9158269615277e-14,4.3590471282201e-13,-0.0013049310837284,0.0013049310836768,-0.0013049310851968,0.0013049310856137,-0.0013049310835605,0.0013049310838374,-0.0013049310850409,0.0013049310857776,-0.0011345559742375,0.0011345559740907,-0.0011345559742346,0.0011345559754115,4.9210437831374e-14,-4.5351710296951e-13,-6.1670016278964e-12,5.7733970788881e-12,-0.0012488122106021,0.0012488122102041,-0.001304931085775,0.0013049310816021,-0.0013049310835893,0.0013049310872878,-0.0013049310859267,0.0013049310814346,-0.0013049310837402,0.0013049310871155,-0.001134555980229,0.0011345559679936,-0.0011345559693176,0.0011345559804498,-0.0012378383058315,0.0012378383098818,-0.001237838306305,0.001237838309367,-4.0351073178447e-12,-4.7006300166267e-12,-0.00088061067126297,0.00088061066028108,1.5250723218521e-12,-1.0416561251792e-11,-0.00092004302400453,0.00092004301784337,-0.00092004302802183,0.00092004301386151,-0.00092004302423509,0.00092004301763714,-0.00092004302827174,0.00092004301365768,-0.00096122720638974,0.00096122719273603,-0.00096122720571794,0.00096122719336416,0.71232201741384,128637,2834,0.0051896974749009,0.0051896974749137,0.0036632118886131,40.774622684328,0.00024139698147463,0.00024139698147463,0.00024139698147463,3124656.5460283,0.014141869995536
8419200,0.90829764479225,0.014740125544268,0.005266214662975,0.0052662146629871,0.0042076962183061,-0.0013578828315946,0.0013578828319414,-1.6718712784212e-13,5.0895968692505e-13,-6.638858952122e-14,4.2900798233592e-13,-0.0014274562745133,0.0014274562744611,-0.0014274562755383,0.0014274562759543,-0.0014274562743466,0.0014274562746168,-0.0014274562753876,0.0014274562761173,-0.0012171969676387,0.0012171969674851,-0.0012171969674983,0.0012171969686685,4.6581812251728e-14,-4.465275573616e-13,-5.7292450476472e-12,5.3403566388587e-12,-0.0013578828319678,0.0013578828315743,-0.0014274562764024,0.0014274562725293,-0.001427456274086,0.0014274562774875,-0.0014274562765513,0.0014274562723652,-0.001427456274234,0.0014274562773185,-0.0012171969731907,0.0012171969618114,-0.0012171969630062,0.0012171969732978,-0.0013447557920456,0.0013447557957976,-0.00134475579251,0.0013447557952929,-2.8249392778245e-12,-3.4907657712666e-12,-0.00090875755818796,0.00090875755077546,2.2790932282075e-12,-8.7750255907563e-12,-0.00095621399796149,0.00095621399435048,-0.00095621400167953,0.00095621399066642,-0.00095621399819152,0.00095621399414379,-0.00095621400192865,0.00095621399046198,-0.0010062852344693,0.0010062852238005,-0.0010062852337986,0.00100628522443,0.6984630265189,128637,2834,0.0056416191395804,0.0056416191395932,0.0037804020761142,41.435493847551,0.00024668395078041,0.00024668395078041,0.00024668395078041,2968388.5181373,0.015177958382707
9419200,0.94997537895858,0.01533876651152,0.005490970504873,0.0054909705048851,0.0043568255017619,-0.0014173999228387,0.0014173999231829,-1.6837785617207e-13,5.0772025420063e-13,-6.5485940625936e-14,4.252585674662e-13,-0.0014956505791009,0.0014956505790477,-0.0014956505798486,0.0014956505802633,-0.001495650578935,0.001495650579201,-0.0014956505797004,0.001495650580426,-0.0012588109269488,0.0012588109267912,-0.0012588109267304,0.0012588109278965,4.5685074940555e-14,-4.428000832853e-13,-5.390402892781e-12,5.0046787943217e-12,-0.0014173999232092,0.0014173999228185,-0.0014956505808715,0.0014956505772278,-0.001495650578512,0.0014956505816871,-0.0014956505810192,0.0014956505770653,-0.0014956505786586,0.0014956505815198,-0.0012588109321635,0.0012588109214479,-0.0012588109225667,0.0012588109322039,-0.0014035293177627,0.001403529321287,-0.0014035293182229,0.0014035293207873,-2.1844505511169e-12,-2.850433332983e-12,-0.00091176003367654,0.00091176002812226,2.5732003022618e-12,-7.7986615356551e-12,-0.00096487000319301,0.00096487000088424,-0.00096487000668204,0.00096486999742817,-0.00096487000342273,0.00096487000067724,-0.00096487000693074,0.00096486999722337,-0.0010208172749506,0.0010208172659255,-0.0010208172742806,0.0010208172665557,0.67992500445378,128637,2834,0.0058881144909233,0.005888114490936,0.0037931471418516,41.144505267223,0.00024435604213778,0.00024435604213778,0.00024435604213778,2784893.0922521,0.015691560510607
10419200,0.9708105622342,0.015645193855825,0.0056050475540193,0.0056050475540314,0.0044350987477744,-0.0014424418086136,0.0014424418089557,-1.6934906179653e-13,5.0680987024753e-13,-6.4380680273234e-14,4.2202746029196e-13,-0.0015256790400707,0.0015256790400168,-0.0015256790402546,0.0015256790406687,-0.0015256790399042,0.0015256790401668,-0.0015256790401098,0.0015256790408319,-0.0012733204414497,0.0012733204412886,-0.0012733204410774,0.0012733204422403,4.468857597115e-14,-4.3947639455287e-13,-4.6728593008945e-12,4.2895431375487e-12,-0.0014424418089818,0.0014424418085936,-0.0015256790415891,0.0015256790384327,-0.0015256790391686,0.0015256790418583,-0.0015256790417354,0.0015256790382718,-0.001525679039314,0.0015256790416924,-0.0012733204459496,0.0012733204366378,-0.0012733204376217,0.0012733204458623,-0.0014287930052225,0.0014287930082643,-0.0014287930056787,0.001428793007769,-6.8776961129568e-13,-1.3539387557475e-12,-0.00090244714524243,0.00090244714391723,3.3286115043799e-12,-5.5894481579602e-12,-0.00095813221307008,0.00095813221376869,-0.00095813221607141,0.00095813221079982,-0.00095813221329963,0.00095813221356151,-0.00095813221631979,0.00095813221059474,-0.0010192894411898,0.0010192894359354,-0.0010192894405202,0.0010192894365662,0.69327203780766,128637,2834,0.0059917986401618,0.0059917986401745,0.0037546776552221,38.090190305967,0.00021992152244774,0.00021992152244774,0.00021992152244774,2657387.0674298,0.015863149192681
11419200,0.98284517303427,0.01581891629103,0.0056695228172856,0.0056695228172976,0.0044798706564471,-0.0014619793910059,0.0014619793913466,-1.7003157035812e-13,5.0608330420833e-13,-6.4067601602278e-14,4.2015572335459e-13,-0.0015472963705804,0.0015472963705257,-0.0015472963711394,0.0015472963715527,-0.0015472963704179,0.0015472963706783,-0.0015472963709922,0.001547296371712,-0.0012866737147994,0.0012866737146362,-0.001286673714536,0.0012866737156967,4.4279176713311e-14,-4.3770075871231e-13,-4.5258444027376e-12,4.1440992241427e-12,-0.0014619793913727,0.0014619793909859,-0.0015472963720726,0.0015472963689975,-0.0015472963700782,0.001547296372688,-0.0015472963722183,0.0015472963688374,-0.0015472963702228,0.0015472963725228,-0.0012866737191725,0.001286673710155,-0.0012866737112027,0.0012866737191537,-0.0014492343270237,0.0014492343299724,-0.0014492343274778,0.0014492343294794,-1.7250503959658e-12,-2.3912427138824e-12,-0.0008966441972481,0.00089664419297044,2.1869777334491e-12,-6.4703343504329e-12,-0.0009556922821128,0.00095569228031534,-0.00095569228503249,0.00095569227742776,-0.00095569228234223,0.00095569228010808,-0.00095569228528073,0.00095569227722255,-0.0010179078090613,0.0010179078016145,-0.001017907808392,0.0010179078022456,0.67904234050817,128637,2834,0.0060726781170056,0.0060726781170183,0.0037307359217233,37.626518900378,0.00021621215120302,0.00021621215120302,0.00021621215120302,2516371.0376342,0.016003179661845
12419200,0.98974660535415,0.015920994108009,0.0057071977138464,0.0057071977138584,0.0045065986803044,-0.0014708067624446,0.0014708067627844,-1.7042802883482e-13,5.0567943419334e-13,-6.3566381620087e-14,4.1873611966368e-13,-0.0015582905462637,0.0015582905462088,-0.0015582905467187,0.0015582905471317,-0.0015582905461017,0.0015582905463607,-0.0015582905465723,0.0015582905472906,-0.0012909089835128,0.0012909089833481,-0.0012909089832272,0.0012909089843865,4.3836660820103e-14,-4.3623182983938e-13,-4.3503870184698e-12,3.9697142279553e-12,-0.0014708067628105,0.0014708067624247,-0.0015582905476965,0.001558290544739,-0.0015582905457161,0.0015582905482092,-0.0015582905478417,0.0015582905445796,-0.0015582905458602,0.0015582905480448,-0.0012909089877129,0.0012909089790393,-0.0012909089800639,0.0012909089876743,-0.0014583448903043,0.0014583448931354,-0.0014583448907566,0.0014583448926443,-1.4782735117488e-12,-2.1445145747871e-12,-0.0008905031694568,0.00089050316589023,2.2571919708053e-12,-6.0483954609646e-12,-0.0009502873284955,0.00095028732717673,-0.00095028733129767,0.00095028732440642,-0.00095028732872485,0.00095028732696939,-0.00095028733154576,0.00095028732420109,-0.0010154049551685,0.0010154049483855,-0.0010154049544995,0.0010154049490169,0.69352878352102,128637,2834,0.00610921935725,0.0061092193572627,0.0037053310771118,36.801455851637,0.0002096116468131,0.0002096116468131,0.0002096116468131,2449673.7627596,0.016051628387115
13419200,0.99360047835821,0.015976550794161,0.0057276840302232,0.0057276840302353,0.0045211827337027,-0.0014750682373134,0.0014750682376524,-1.7077542998666e-13,5.0530544561843e-13,-6.3442944214544e-14,4.1781800065276e-13,-0.0015629629493373,0.001562962949282,-0.0015629629495588,0.0015629629499713,-0.0015629629491749,0.0015629629494329,-0.0015629629494135,0.0015629629501307,-0.0012927436211644,0.0012927436209987,-0.0012927436208165,0.0012927436219746,4.3631431795591e-14,-4.3539094060379e-13,-4.078861552357e-12,3.6989636297149e-12,-0.0014750682376785,0.0014750682372934,-0.0015629629506738,0.0015629629479014,-0.0015629629486519,0.0015629629509605,-0.0015629629508186,0.0015629629477423,-0.0015629629487956,0.0015629629507963,-0.001292743625093,0.0012927436169504,-0.0012927436179225,0.0012927436250041,-0.0014634259231821,0.0014634259258305,-0.0014634259236334,0.0014634259253406,-8.2611526119483e-13,-1.4923567036447e-12,-0.00088218242500906,0.00088218242327573,2.6274401893881e-12,-5.1271735007219e-12,-0.00094404235198598,0.00094404235196331,-0.00094404235460314,0.00094404234937786,-0.00094404235221528,0.00094404235175593,-0.00094404235485119,0.00094404234917248,-0.0010089011104945,0.0010089011053285,-0.0010089011098257,0.0010089011059601,0.67548193160321,128637,2834,0.0061268457863391,0.0061268457863518,0.0036708657501048,34.787789986881,0.00019350231989505,0.00019350231989505,0.00019350231989505,2370300.9605895,0.016052434772157
14419200,0.99582589717919,0.016008193580713,0.0057393432359957,0.0057393432360078,0.0045295071087091,-0.0014736368623397,0.0014736368626785,-1.7087983856176e-13,5.0516227352165e-13,-6.3165158583058e-14,4.1723698899051e-13,-0.001562955901938,0.0015629559018828,-0.0015629559021064,0.001562955902519,-0.0015629559017762,0.0015629559020336,-0.0015629559019612,0.0015629559026778,-0.0012887562454071,0.0012887562452409,-0.001288756245052,0.0012887562462096,4.3442790499629e-14,-4.3472856142496e-13,-3.8614135943122e-12,3.4819715546297e-12,-0.0014736368627045,0.0014736368623198,-0.0015629559032041,0.0015629559005751,-0.0015629559012696,0.0015629559034352,-0.0015629559033487,0.0015629559004164,-0.0015629559014131,0.0015629559032714,-0.0012887562491243,0.0012887562414085,-0.0012887562423682,0.0012887562490244,-0.0014619500017017,0.0014619500042055,-0.0014619500021522,0.0014619500037165,-6.9605660928248e-13,-1.362291030003e-12,-0.00087407825111561,0.00087407824974565,2.5433365528141e-12,-4.7780150055096e-12,-0.00093565103696005,0.0009356510371206,-0.00093565103943325,0.00093565103467896,-0.00093565103718928,0.00093565103691319,-0.00093565103968119,0.00093565103447353,-0.0010028919291436,0.0010028919244068,-0.0010028919284748,0.0010028919250384,0.66541847185165,128637,2834,0.0061209140899281,0.0061209140899408,0.0036372605864689,32.636642400787,0.00017629313920629,0.00017629313920629,0.00017629313920629,2348555.7287289,0.016006239570227
15419200,0.99698428866701,0.016025581540073,0.0057457111529331,0.0057457111529451,0.0045341592341944,-0.0014648410975387,0.0014648410978771,-1.7107347970498e-13,5.0500892526516e-13,-6.2901519578225e-14,4.1658403834947e-13,-0.0015550532495194,0.0015550532494641,-0.0015550532490535,0.001555053249466,-0.001555053249356,0.0015550532496128,-0.0015550532489103,0.0015550532496263,-0.0012780436416771,0.0012780436415101,-0.0012780436411588,0.0012780436423158,4.3232267519197e-14,-4.340266109596e-13,-2.9547850271761e-12,2.57583053441e-12,-0.0014648410979031,0.0014648410975189,-0.0015550532504701,0.001555053248455,-0.0015550532485318,0.0015550532500839,-0.0015550532506144,0.0015550532482966,-0.001555053248675,0.0015550532499204,-0.0012780436444951,0.0012780436385529,-0.0012780436393727,0.0012780436442569,-0.0014533247198775,0.0014533247217734,-0.0014533247203272,0.0014533247212853,1.0840271881712e-12,4.1772738577393e-13,-0.00085925970718107,0.00085925971079042,3.390611977955e-12,-2.0946304222431e-12,-0.00092081325247468,0.00092081325613359,-0.00092081325433287,0.00092081325430685,-0.00092081325270389,0.00092081325592613,-0.00092081325458076,0.00092081325410136,-0.00098981592461642,0.0009898159243903,-0.00098981592394766,0.00098981592502205,0.70136789653827,128637,2834,0.006084483236016,0.0060844832360287,0.0035757756945628,27.051272770395,0.00013161018216316,0.00013161018216316,0.00013161018216316,2333860.9663305,0.01586975220825
16419200,0.99772844686475,0.016036358263055,0.0057496653122687,0.0057496653122807,0.0045370276385057,-0.0014648041628591,0.001464804163197,-1.7128059102493e-13,5.0477410890923e-13,-6.3117777677571e-14,4.1633519301034e-13,-0.0015539063113597,0.0015539063113039,-0.0015539063114253,0.0015539063118374,-0.0015539063111999,0.0015539063114561,-0.0015539063112788,0.0015539063119942,-0.0012777883902737,0.0012777883901064,-0.0012777883899007,0.0012777883910572,4.3270795753951e-14,-4.3394326418363e-13,-3.0052599147181e-12,2.6266223044475e-12,-0.0014648041632231,0.0014648041628391,-0.001553906312352,0.0015539063102851,-0.0015539063108615,0.0015539063124657,-0.0015539063124962,0.0015539063101267,-0.0015539063110047,0.0015539063123022,-0.0012777883931602,0.0012777883871256,-0.0012777883880453,0.0012777883930228,-0.0014544970935704,0.001454497095506,-0.00145449709402,0.0014544970950178,-3.0438739361432e-13,-9.7065787647993e-13,-0.00085093556232348,0.00085093556198049,2.0976677412198e-12,-3.5231297090411e-12,-0.0009151751272806,0.00091517512771321,-0.00091517512918989,0.00091517512583535,-0.00091517512750982,0.00091517512750575,-0.00091517512943782,0.00091517512562985,-0.00098151958304155,0.0009815195797165,-0.000981519582373,0.00098151958034837,0.67695707169602,128637,2834,0.0060843091002428,0.0060843091002555,0.0035412684566121,24.409536489911,0.00011047629191929,0.00011047629191929,0.00011047629191929,2261551.1283156,0.015834347617034
17419200,0.99822826475348,0.016043791908929,0.0057523860756763,0.0057523860756883,0.0045390197575648,-0.0014596384991594,0.0014596384994975,-1.7122194575768e-13,5.0480651968381e-13,-6.2965517623129e-14,4.1624343110772e-13,-0.0015499761935115,0.0015499761934559,-0.0015499761935928,0.001549976194005,-0.0015499761933518,0.0015499761936081,-0.0015499761934463,0.0015499761941618,-0.0012709493490719,0.0012709493489045,-0.0012709493487049,0.0012709493498614,4.3241973105051e-14,-4.3373629980313e-13,-3.0720632980359e-12,2.6935450191956e-12,-0.0014596384995234,0.0014596384991396,-0.0015499761945263,0.0015499761924149,-0.0015499761930065,0.0015499761946555,-0.0015499761946705,0.0015499761922565,-0.0015499761931496,0.0015499761944921,-0.0012709493520246,0.0012709493458588,-0.0012709493467832,0.001270949351892,-0.0014490557398036,0.0014490557417837,-0.001449055740253,0.0014490557412959,-3.9346500363895e-13,-1.0597329200044e-12,-0.00084307448829401,0.00084307448772,2.0761867062742e-12,-3.6788617456519e-12,-0.00090635676878112,0.00090635676909618,-0.00090635677073512,0.0009063567671735,-0.00090635676901028,0.00090635676888869,-0.00090635677098296,0.00090635676696796,-0.0009752418564186,0.00097524185285835,-0.00097524185575007,0.00097524185349023,0.69392132863315,128637,2834,0.0060629186106576,0.0060629186106703,0.0035086438145406,21.972222389768,9.0977779118142e-05,9.0977779118142e-05,9.0977779118142e-05,2264646.1966568,0.015757749928995
18419200,0.9985387646916,0.016048333010425,0.0057540485846194,0.0057540485846314,0.0045402358411741,-0.0014535150620376,0.0014535150623754,-1.7132811898475e-13,5.0469758183531e-13,-6.3074426060756e-14,4.1611834669367e-13,-0.0015435097355487,0.0015435097354928,-0.00154350973498,0.0015435097353919,-0.0015435097353859,0.0015435097356419,-0.0015435097348366,0.0015435097355517,-0.0012642500125571,0.0012642500123896,-0.0012642500120227,0.001264250013179,4.3280089587678e-14,-4.3367627934811e-13,-2.6083042449684e-12,2.2299832431897e-12,-0.0014535150624014,0.0014535150620177,-0.0015435097363865,0.0015435097346004,-0.0015435097345704,0.0015435097358941,-0.0015435097365307,0.0015435097344421,-0.0015435097347134,0.0015435097357308,-0.0012642500150373,0.0012642500097747,-0.001264250010573,0.0012642500147793,-0.0014435780220274,0.0014435780236931,-0.0014435780224768,0.0014435780232053,1.4260154263271e-12,7.5974361388352e-13,-0.00083110956621486,0.00083110957075343,3.3908547793611e-12,-1.4044408747071e-12,-0.00089580823236197,0.00089580823650257,-0.00089580823399084,0.00089580823490499,-0.00089580823259113,0.00089580823629508,-0.00089580823423869,0.00089580823469944,-0.00096375962301566,0.0009637596237692,-0.00096375962234723,0.00096375962440117,0.68265313945557,128637,2834,0.0060375455917497,0.0060375455917624,0.0034590013685758,17.468112592085,5.4944900736681e-05,5.4944900736681e-05,5.4944900736681e-05,2228535.5889947,0.015655786678022
19419200,0.99879602803447,0.016052317085748,0.0057555004341657,0.0057555004341777,0.0045413162174047,-0.0014537159778812,0.0014537159782197,-1.7107271502246e-13,5.0516568518214e-13,-6.3609380306507e-14,4.1738857259503e-13,-0.0015443477531927,0.0015443477531369,-0.0015443477537014,0.0015443477541135,-0.0015443477530353,0.0015443477532925,-0.0015443477535515,0.001544347754268,-0.001263437994161,0.0012634379939945,-0.0012634379939126,0.0012634379950704,4.3875306698321e-14,-4.348913481569e-13,-3.0855982789105e-12,2.7066729784396e-12,-0.0014537159782456,0.0014537159778614,-0.0015443477542325,0.0015443477520972,-0.0015443477530899,0.0015443477547629,-0.0015443477543773,0.0015443477519383,-0.0015443477532336,0.001544347754599,-0.001263437997144,0.0012634379909565,-0.0012634379919626,0.0012634379970913,-0.0014437309991377,0.0014437310011328,-0.0014437309995888,0.0014437310006432,-1.5555594876294e-12,-2.2220584411693e-12,-0.0008289551255078,0.0008289551216444,9.6437587721422e-13,-4.8454538570637e-12,-0.00089330482552193,0.00089330482317576,-0.00089330482749904,0.00089330482122986,-0.00089330482575113,0.00089330482296817,-0.00089330482774692,0.00089330482102421,-0.00096255473236921,0.00096255472623728,-0.00096255473170057,0.00096255472686948,0.72156537812744,128637,2834,0.0060383774787152,0.0060383774787279,0.003450069026634,17.551686816462,5.5613494531694e-05,5.5613494531694e-05,5.5613494531694e-05,2216332.494332,0.015648403648912
20419200,0.99901994194448,0.016055821217073,0.0057567761033363,0.0057567761033484,0.0045422690103886,-0.0014593192296239,0.0014593192299614,-1.7156487645785e-13,5.0467258259902e-13,-6.3211627751692e-14,4.1595796924015e-13,-0.0015488100724637,0.0015488100724076,-0.0015488100731958,0.0015488100736075,-0.0015488100723042,0.0015488100725598,-0.0015488100730494,0.0015488100737642,-0.0012693359790738,0.0012693359789058,-0.0012693359788796,0.0012693359800358,4.3324147065281e-14,-4.3360310419385e-13,-4.6954707728134e-12,4.3174185470035e-12,-0.0014593192299875,0.001459319229604,-0.0015488100740195,0.0015488100708257,-0.0015488100720679,0.0015488100747997,-0.0015488100741636,0.0015488100706674,-0.0015488100722109,0.0015488100746363,-0.0012693359836158,0.0012693359742695,-0.0012693359753676,0.001269335983658,-0.0014503007178952,0.0014503007209584,-0.0014503007183446,0.0014503007204706,-2.3773664725232e-12,-3.0438572181337e-12,-0.000829200840163,0.00082920083413354,1.7204032222743e-12,-7.2915230136829e-12,-0.0008958079550518,0.00089580795192913,-0.00089580795809108,0.00089580794892106,-0.00089580795528101,0.00089580795172154,-0.000895807958339,0.00089580794871541,-0.00096232832349632,0.00096232831453125,-0.00096232832282786,0.00096232831516357,0.72908888616955,128637,2834,0.0060615670176957,0.0060615670177085,0.0034511249220492,18.599600398296,6.3996803186371e-05,6.3996803186371e-05,6.3996803186371e-05,2153681.4195821,0.01569658509384
21419200,0.99917218978503,0.016058141075771,0.0057576218724591,0.0057576218724712,0.0045428973308406,-0.0014535988502156,0.001453598850553,-1.715437594559e-13,5.046611123612e-13,-6.3252008871018e-14,4.1598114500274e-13,-0.0015432596559771,0.0015432596559209,-0.0015432596556737,0.0015432596560854,-0.0015432596558171,0.0015432596560727,-0.0015432596555276,0.0015432596562425,-0.0012630421265292,0.0012630421263612,-0.0012630421260603,0.0012630421272165,4.337408671613e-14,-4.3361539833804e-13,-2.2567017306692e-12,1.8787267201589e-12,-0.0014535988505791,0.0014535988501956,-0.0015432596567167,0.0015432596551513,-0.0015432596553619,0.0015432596564653,-0.0015432596568608,0.001543259654993,-0.0015432596555049,0.0015432596563019,-0.0012630421286796,0.0012630421241111,-0.0012630421249399,0.0012630421284527,-0.0014446990291366,0.0014446990305721,-0.001444699029586,0.0014446990300843,7.7345182757483e-13,1.0698099650987e-13,-0.00081953106476654,0.00081953106742882,2.4220604635978e-12,-1.6982489873062e-12,-0.00088693238604771,0.00088693238839462,-0.00088693238745615,0.00088693238701734,-0.00088693238627691,0.00088693238818703,-0.00088693238770404,0.00088693238681168,-0.00095331744599647,0.00095331744553833,-0.00095331744532809,0.00095331744617069,0.70949629803715,128637,2834,0.0060378672891492,0.0060378672891619,0.0034109985702083,15.218251064209,3.6946008513669e-05,3.6946008513669e-05,3.6946008513669e-05,2135206.6666291,0.015607691074164
22419200,0.99929827597847,0.016060080897246,0.0057583282116848,0.0057583282116969,0.0045434244738645,-0.0014522013983514,0.0014522013986889,-1.7149070225323e-13,5.0469787594398e-13,-6.3141923998741e-14,4.1594002861176e-13,-0.0015426654897907,0.0015426654897347,-0.0015426654901836,0.0015426654905954,-0.0015426654896341,0.0015426654898898,-0.0015426654900342,0.0015426654907492,-0.0012606501123703,0.0012606501122023,-0.0012606501120876,0.0012606501132439,4.3351793279532e-14,-4.3349242938096e-13,-2.7370370526762e-12,2.359120222776e-12,-0.0014522013987149,0.0014522013983315,-0.0015426654907149,0.0015426654888113,-0.0015426654896873,0.001542665491129,-0.001542665490859,0.0015426654886531,-0.0015426654898303,0.0015426654909657,-0.0012606501150107,0.0012606501095074,-0.0012606501104771,0.0012606501149248,-0.0014430704374399,0.0014430704392021,-0.0014430704378892,0.0014430704387145,-1.2053127921475e-12,-1.8717824653894e-12,-0.00081666086082207,0.00081666085793244,9.663707280376e-13,-4.1459378591502e-12,-0.00088342452675322,0.00088342452494804,-0.00088342452849802,0.00088342452323432,-0.00088342452698237,0.00088342452474043,-0.00088342452874584,0.00088342452302863,-0.0009514566588869,0.00095145665375727,-0.00095145665821852,0.00095145665438962,0.71603401204604,128637,2834,0.0060320813126598,0.0060320813126725,0.003399088326064,14.858157227674,3.4065257821396e-05,3.4065257821396e-05,3.4065257821396e-05,2133661.410298,0.015583841519539
23419200,0.99941025931229,0.016061774270863,0.0057589450746856,0.0057589450746977,0.0045438841214802,-0.0014547978527263,0.0014547978530638,-1.7151764260669e-13,5.0466458284341e-13,-6.3172805408276e-14,4.1589385355178e-13,-0.0015452084856894,0.0015452084856333,-0.0015452084863637,0.0015452084867755,-0.0015452084855333,0.0015452084857889,-0.0015452084862139,0.0015452084869288,-0.0012629022516617,0.0012629022514937,-0.0012629022514544,0.0012629022526106,4.3379674780713e-14,-4.3344913876871e-13,-3.2446149928076e-12,2.8668319423109e-12,-0.0014547978530898,0.0014547978527065,-0.0015452084867863,0.0015452084845417,-0.0015452084856945,0.0015452084874774,-0.0015452084869304,0.0015452084843835,-0.0015452084858376,0.0015452084873141,-0.0012629022548022,0.0012629022483054,-0.0012629022493437,0.0012629022547852,-0.0014459102870727,0.0014459102891744,-0.001445910287522,0.0014459102886868,-2.0478246772644e-12,-2.7142929625661e-12,-0.00081660442343539,0.00081660441821598,6.3974026519756e-13,-5.4963242822425e-12,-0.00088393414003291,0.00088393413665957,-0.00088393414211969,0.00088393413460379,-0.00088393414026206,0.00088393413645193,-0.00088393414236751,0.00088393413439807,-0.00095166977724072,0.00095166976993085,-0.00095166977657239,0.00095166977056327,0.70403094493683,128637,2834,0.0060428291670127,0.0060428291670255,0.0033988714924426,15.707567737264,4.0860541898115e-05,4.0860541898115e-05,4.0860541898115e-05,2107403.5387959,0.015605452928399
24419200,0.99951598431399,0.016063400142328,0.0057595362171078,0.0057595362171198,0.0045443277081003,-0.0014586951701242,0.0014586951704616,-1.7156211183642e-13,5.0463246617749e-13,-6.2984458220977e-14,4.156093622428e-13,-0.0015496023432708,0.0015496023432148,-0.0015496023442436,0.0015496023446554,-0.0015496023431112,0.0015496023433666,-0.0015496023440976,0.0015496023448122,-0.0012661279628844,0.0012661279627162,-0.0012661279627617,0.0012661279639177,4.3231561658408e-14,-4.3312554284093e-13,-5.4399891824116e-12,5.0623413452704e-12,-0.0014586951704875,0.0014586951701044,-0.0015496023450731,0.0015496023413843,-0.001549602342869,0.0015496023460963,-0.0015496023452171,0.0015496023412262,-0.0015496023430119,0.0015496023459331,-0.001266127968155,0.0012661279573492,-0.0012661279585204,0.0012661279682714,-0.001449702690144,0.0014497026937034,-0.0014497026905928,0.0014497026932162,-3.1713409115425e-12,-3.8378298451679e-12,-0.00081945097780022,0.00081945096961798,1.6705464659522e-12,-8.8328582504789e-12,-0.00088637452946264,0.000886374525068,-0.0008863745329984,0.00088637452156322,-0.00088637452969177,0.00088637452486035,-0.00088637453324618,0.00088637452135749,-0.00095513756504051,0.0009551375538568,-0.00095513756437219,0.00095513755448924,0.7154808588702,128637,2834,0.0060589710717088,0.0060589710717215,0.0034106977478688,17.886345424928,5.8290763399422e-05,5.8290763399422e-05,5.8290763399422e-05,2096081.6423935,0.015650251381335
25419200,0.99961236675582,0.016064956377561,0.0057600999434841,0.0057600999434961,0.0045447564905809,-0.0014638293871672,0.0014638293875046,-1.7156164126257e-13,5.0460693754561e-13,-6.3088484454812e-14,4.1567512493968e-13,-0.0015544876689246,0.0015544876688684,-0.0015544876698674,0.001554487670279,-0.0015544876687648,0.0015544876690202,-0.0015544876697214,0.001554487670436,-0.0012711476160505,0.0012711476158823,-0.0012711476159166,0.0012711476170725,4.3297853750877e-14,-4.3322723579356e-13,-5.3963454273482e-12,5.0187221428806e-12,-0.0014638293875305,0.0014638293871474,-0.0015544876707114,0.0015544876670525,-0.0015544876685081,0.0015544876717054,-0.0015544876708554,0.0015544876668944,-0.0015544876686511,0.0015544876715422,-0.0012711476212777,0.0012711476105572,-0.0012711476117187,0.0012711476213844,-0.0014551540411842,0.001455154044714,-0.0014551540416332,0.0014551540442266,-3.0825828559216e-12,-3.7490463221495e-12,-0.00082214439807977,0.00082214439014557,1.716080766087e-12,-8.7025467461118e-12,-0.00088982392135252,0.00088982391712767,-0.0008898239248598,0.00088982391365136,-0.00088982392158164,0.00088982391692003,-0.00088982392510757,0.00088982391344563,-0.0009578562242264,0.00095785621326619,-0.00095785622355817,0.00095785621389865,0.75063832771117,128637,2834,0.0060802278347605,0.0060802278347732,0.003421898348698,19.931057255273,7.4648458042184e-05,7.4648458042184e-05,7.4648458042184e-05,2064815.3494171,0.015704808524605
26419200,0.99969137617643,0.016066260391347,0.0057605717325041,0.0057605717325161,0.0045451169263269,-0.0014668443503612,0.0014668443506984,-1.716193453821e-13,5.0454893931742e-13,-6.3249244249593e-14,4.1570156530841e-13,-0.001556770736631,0.0015567707365746,-0.0015567707371774,0.0015567707375889,-0.0015567707364695,0.0015567707367248,-0.0015567707370331,0.0015567707377477,-0.0012744623083019,0.0012744623081337,-0.0012744623080566,0.0012744623092125,4.3368381008082e-14,-4.33335611906e-13,-5.0968383770026e-12,4.7192917553469e-12,-0.0014668443507244,0.0014668443503413,-0.0015567707383051,0.0015567707348553,-0.0015567707359307,0.001556770738919,-0.0015567707384491,0.0015567707346971,-0.0015567707360737,0.0015567707387557,-0.0012744623132253,0.0012744623030881,-0.0012744623041625,0.001274462313245,-0.0014586904975417,0.0014586905008686,-0.0014586904979909,0.0014586905003811,-1.9390014311976e-12,-2.6054631401837e-12,-0.00082133433933747,0.00082133433460275,2.5367055495044e-12,-7.2646162474309e-12,-0.00089080350245919,0.00089080350060652,-0.00089080350575771,0.00089080349733895,-0.00089080350268831,0.00089080350039889,-0.00089080350600552,0.00089080349713321,-0.00095672049306081,0.00095672048481407,-0.00095672049239269,0.00095672048544662,0.76690856828202,128637,2834,0.0060927003396309,0.0060927003396437,0.0034185620182776,20.394822418358,7.8358579346864e-05,7.8358579346864e-05,7.8358579346864e-05,2022237.9616299,0.01572675996544
27419200,0.99976028752105,0.016067354752219,0.0057609684870303,0.0057609684870424,0.0045454177781464,-0.0014709777891643,0.0014709777895015,-1.7159764016282e-13,5.0456258595935e-13,-6.3268273080039e-14,4.1572832919668e-13,-0.0015608131676932,0.0015608131676369,-0.0015608131684805,0.0015608131688919,-0.0015608131675333,0.0015608131677886,-0.0015608131683346,0.0015608131690491,-0.0012786244628534,0.0012786244626852,-0.0012786244626717,0.0012786244638276,4.3387968644988e-14,-4.33360092546e-13,-5.0595111443919e-12,4.6820064973271e-12,-0.0014709777895275,0.0014709777891444,-0.0015608131693664,0.001560813165933,-0.0015608131672347,0.0015608131702066,-0.0015608131695105,0.0015608131657748,-0.0015608131673776,0.0015608131700433,-0.0012786244677491,0.0012786244576885,-0.0012786244588052,0.0012786244678113,-0.0014628608977563,0.0014628609010612,-0.0014628608982055,0.0014628609005736,-2.5979780946049e-12,-3.2644367736974e-12,-0.00082310141660446,0.00082310141000422,1.8605679256329e-12,-7.8809996526351e-12,-0.00089351177732112,0.00089351177394734,-0.00089351178060249,0.00089351177069687,-0.00089351177755023,0.00089351177373969,-0.00089351178085028,0.00089351177049112,-0.00095857512960525,0.0009585751199292,-0.00095857512893719,0.00095857512056181,0.73787588813529,128637,2834,0.0061098097330281,0.0061098097330408,0.0034259172516358,22.255541095347,9.3244328762775e-05,9.3244328762775e-05,9.3244328762775e-05,1993957.4909343,0.015768990353284
28419200,0.99981691956611,0.016068300599593,0.0057613100490712,0.0057613100490833,0.0045456805014388,-0.0014720700653899,0.0014720700657272,-1.715724056396e-13,5.0463658369876e-13,-6.3123542207351e-14,4.156713603488e-13,-0.0015627733730235,0.0015627733729673,-0.0015627733736917,0.0015627733741033,-0.0015627733728633,0.0015627733731186,-0.0015627733735462,0.0015627733742609,-0.0012787990559536,0.0012787990557854,-0.0012787990557404,0.0012787990568964,4.3338911320126e-14,-4.3321510329426e-13,-4.9212069313588e-12,4.5437313796253e-12,-0.0014720700657531,0.0014720700653701,-0.001562773374648,0.0015627733713088,-0.0015627733724947,0.0015627733753725,-0.001562773374792,0.0015627733711507,-0.0015627733726377,0.0015627733752093,-0.0012787990607121,0.0012787990509216,-0.0012787990520111,0.0012787990607471,-0.0014636167214356,0.0014636167246476,-0.0014636167218847,0.0014636167241603,-2.2675018843027e-12,-2.9340213970721e-12,-0.00082406727948302,0.00082406727381468,2.0474866859813e-12,-7.4127596629277e-12,-0.00089346937789736,0.00089346937518795,-0.0008934693810843,0.00089346937203187,-0.00089346937812646,0.00089346937498026,-0.00089346938133204,0.00089346937182607,-0.00096047676263312,0.00096047675377699,-0.00096047676196499,0.00096047675440964,0.77519523914576,128637,2834,0.0061143378766107,0.0061143378766235,0.0034299288689897,23.443516429108,0.00010274813143286,0.00010274813143286,0.00010274813143286,1998105.5224099,0.015782262217722
29419200,0.9998629353131,0.016068982349303,0.005761557830956,0.005761557830968,0.0045458666873792,-0.0014767164965525,0.0014767164968893,-1.7059137678583e-13,5.031347472259e-13,-6.2869167625378e-14,4.14860502767e-13,-0.0015666207019206,0.001566620701865,-0.0015666207026197,0.0015666207030304,-0.001566620701761,0.0015666207020163,-0.0015666207024744,0.0015666207031872,-0.0012838651840592,0.0012838651838926,-0.0012838651838534,0.0012838651850062,4.2989274942454e-14,-4.3249051576768e-13,-4.8643243432556e-12,4.4873206323467e-12,-0.0014767164969153,0.0014767164965327,-0.0015666207035287,0.0015666207002256,-0.0015666207014389,0.0015666207042806,-0.0015666207036724,0.0015666207000679,-0.0015666207015815,0.0015666207041178,-0.0012838651887639,0.001283865179086,-0.0012838651801763,0.0012838651888014,-0.0014687786175611,0.0014687786207351,-0.0014687786180091,0.0014687786202488,-2.3308526658341e-12,-2.9948792731999e-12,-0.00082532493912641,0.00082532493327164,1.9325873137253e-12,-7.4173491403694e-12,-0.00089651952037826,0.00089651951747154,-0.000896519523529,0.00089651951435165,-0.00089651952060654,0.00089651951726469,-0.00089651952377596,0.00089651951414668,-0.00096126089583764,0.00096126088688244,-0.00096126089517206,0.00096126088751274,0.68887861521536,128637,2834,0.0061335665833861,0.0061335665833988,0.0034351764206543,24.782753684264,0.00011346202947411,0.00011346202947411,0.00011346202947411,1955601.5152317,0.015826661069926
30419200,0.9998995385797,0.016069515297821,0.00576175160067,0.005761751600682,0.0045460120964688,-0.0014753158426063,0.0014753158429437,-1.7034214910545e-13,5.0337703394185e-13,-6.2741289179036e-14,4.1523725596333e-13,-0.0015675209447215,0.0015675209446664,-0.0015675209454118,0.0015675209458228,-0.0015675209445619,0.0015675209448178,-0.0015675209452661,0.0015675209459797,-0.0012802825708848,0.0012802825707187,-0.0012802825706879,0.0012802825718412,4.3115682845485e-14,-4.3263479427597e-13,-4.8301468739117e-12,4.4529099188645e-12,-0.0014753158429694,0.0014753158425867,-0.0015675209463194,0.0015675209430385,-0.0015675209442415,0.0015675209470611,-0.0015675209464632,0.0015675209428807,-0.0015675209443842,0.0015675209468982,-0.0012802825755582,0.0012802825659469,-0.0012802825670429,0.0012802825756005,-0.0014663510517389,0.0014663510548908,-0.0014663510521872,0.0014663510544043,-2.3444413947795e-12,-3.0084825341002e-12,-0.00082740919974155,0.00082740919386504,1.886254185053e-12,-7.3952365805988e-12,-0.00089476585172958,0.00089476584881152,-0.00089476585485764,0.00089476584571422,-0.0008947658519578,0.00089476584860463,-0.00089476585510446,0.00089476584550921,-0.00096543718742873,0.00096543717846811,-0.00096543718676297,0.00096543717909829,0.67662188291984,128637,2834,0.0061277904571107,0.0061277904571234,0.0034438050348704,26.133485819607,0.00012426788655686,0.00012426788655686,0.00012426788655686,2006365.7972667,0.015823683794182
31419200,0.99992917096895,0.016069978436239,0.0057619190219681,0.0057619190219802,0.0045461403922904,-0.0014795395856244,0.0014795395859632,-1.6915071491471e-13,5.0371190606468e-13,-6.392037080596e-14,4.1790826260121e-13,-0.001572102919426,0.0015721029193715,-0.0015721029202886,0.0015721029206997,-0.0015721029192661,0.0015721029195252,-0.0015721029201408,0.0015721029208568,-0.0012839310784306,0.0012839310782681,-0.0012839310782861,0.0012839310794415,4.432241068666e-14,-4.3529467498995e-13,-4.9024412167823e-12,4.5237778862496e-12,-0.001479539585989,0.0014795395856048,-0.0015721029210554,0.0015721029177215,-0.0015721029190872,0.0015721029219597,-0.0015721029212005,0.0015721029175624,-0.0015721029192312,0.0015721029217955,-0.0012839310831835,0.0012839310734309,-0.0012839310745672,0.0012839310832606,-0.0014705358776245,0.0014705358808284,-0.0014705358780767,0.0014705358803381,-2.8239130153457e-12,-3.4870718547014e-12,-0.00083130847457057,0.00083130846734397,1.492369070914e-12,-7.9427164289946e-12,-0.00089813580564731,0.0008981358016877,-0.00089813580882828,0.00089813579853742,-0.00089813580587524,0.00089813580148102,-0.00089813580907479,0.00089813579833268,-0.00096980104863251,0.00096980103856883,-0.00096980104796771,0.00096980103919827,0.72614080416286,128637,2834,0.0061452844145167,0.0061452844145295,0.0034599985934035,28.443692822004,0.00014274954257603,0.00014274954257603,0.00014274954257603,1998940.8741062,0.015875675065229
32419200,0.9999508152281,0.016070333670588,0.0057620470857817,0.0057620470857938,0.0045462394990125,-0.0014847065808096,0.0014847065811474,-1.6964681740618e-13,5.0322821495876e-13,-6.3726288499748e-14,4.1678903208705e-13,-0.001575763832412,0.0015757638323569,-0.0015757638330221,0.0015757638334325,-0.0015757638322512,0.0015757638325088,-0.0015757638328761,0.0015757638335907,-0.0012899830810608,0.0012899830808969,-0.0012899830808387,0.0012899830819926,4.394736332057e-14,-4.3432673460352e-13,-4.8015241983952e-12,4.4236321073992e-12,-0.0014847065811733,0.0014847065807898,-0.0015757638339968,0.0015757638307378,-0.0015757638318647,0.0015757638346625,-0.0015757638341414,0.0015757638305791,-0.0015757638320082,0.0015757638344987,-0.0012899830857042,0.0012899830761476,-0.0012899830772266,0.0012899830857268,-0.0014767375575794,0.0014767375607126,-0.0014767375580302,0.0014767375602236,-2.1041783493679e-12,-2.7673640471633e-12,-0.00083194112326873,0.00083194111806528,2.0918379193169e-12,-7.127660225461e-12,-0.00090147201341726,0.00090147201100368,-0.00090147201652387,0.00090147200792783,-0.00090147201364521,0.00090147201079708,-0.00090147201677046,0.0009014720077231,-0.00096938421206623,0.00096938420365549,-0.00096938421140146,0.00096938420428496,0.7621255417203,128637,2834,0.0061666630414014,0.0061666630414141,0.0034626564450281,29.297399996713,0.00014957919997371,0.00014957919997371,0.00014957919997371,1939922.510358,0.015921816670751
33419200,0.99996585775787,0.016070583405632,0.0057621370945535,0.0057621370945656,0.0045463092165129,-0.0014861886143716,0.0014861886147091,-1.6980522433166e-13,5.030549849567e-13,-6.3585498683133e-14,4.1628137112515e-13,-0.0015766623300133,0.001576662329958,-0.0015766623304799,0.0015766623308902,-0.0015766623298522,0.0015766623301092,-0.0015766623303346,0.0015766623310485,-0.0012918692535492,0.0012918692533848,-0.0012918692532827,0.001291869254436,4.3746369460795e-14,-4.3387400073203e-13,-4.617656598972e-12,4.2400926555799e-12,-0.0014861886147351,0.0014861886143519,-0.0015766623315334,0.0015766623283993,-0.0015766623293869,0.0015766623320599,-0.0015766623316778,0.0015766623282409,-0.0015766623295302,0.0015766623318963,-0.0012918692580093,0.0012918692488123,-0.0012918692498528,0.0012918692579945,-0.0014785298990057,0.0014785299020151,-0.0014785298994558,0.0014785299015267,-1.6684508622899e-12,-2.3316228293466e-12,-0.00083022139365724,0.00083022138966447,2.3375204580016e-12,-6.5093709078929e-12,-0.00090144595606652,0.00090144595449151,-0.0009014459590482,0.00090144595154058,-0.00090144595629448,0.00090144595428491,-0.00090144595929481,0.00090144595133585,-0.00096734189876922,0.00096734189143745,-0.00096734189810456,0.00096734189206699,0.7702680156654,128637,2834,0.0061727873277866,0.0061727873277993,0.0034555385887195,29.317356884967,0.00014973885507974,0.00014973885507974,0.00014973885507974,1906205.3356249,0.015927032430774
34419200,0.99997724361998,0.016070765426693,0.0057622028116821,0.0057622028116941,0.004546359803317,-0.0014903700540497,0.0014903700543871,-1.6983228232859e-13,5.0295051755987e-13,-6.3370240553238e-14,4.1590379442457e-13,-0.0015809039774844,0.0015809039774292,-0.0015809039783275,0.0015809039787378,-0.0015809039773255,0.0015809039775821,-0.0015809039781805,0.0015809039788941,-0.0012960380376615,0.0012960380374969,-0.0012960380375005,0.0012960380386534,4.355019898308e-14,-4.3347743001151e-13,-4.7894669537418e-12,4.412114209263e-12,-0.001490370054413,0.00149037005403,-0.0015809039790758,0.0015809039758168,-0.0015809039771633,0.0015809039799611,-0.00158090397922,0.0015809039756586,-0.0015809039773063,0.0015809039797978,-0.0012960380423008,0.0012960380327713,-0.0012960380338908,0.0012960380423657,-0.0014826311104448,0.001482631113572,-0.0014826311108943,0.0014826311130842,-2.7378215752974e-12,-3.4009200748144e-12,-0.00083306789949494,0.00083306789249593,1.4653744249937e-12,-7.7447694614327e-12,-0.00090480161473777,0.00090480161087008,-0.00090480161784382,0.00090480160779474,-0.00090480161496569,0.00090480161066349,-0.00090480161809038,0.00090480160759002,-0.00097031628173798,0.00097031627193756,-0.00097031628107343,0.00097031627256706,0.74168251551191,128637,2834,0.0061900975049537,0.0061900975049664,0.0034673685265624,31.487355094999,0.00016709884075999,0.00016709884075999,0.00016709884075999,1887117.278777,0.015974224349893
35419200,0.99998617396634,0.016070903307436,0.0057622526405717,0.0057622526405838,0.0045463980262801,-0.0014977492427583,0.0014977492430957,-1.6981463580885e-13,5.0301445678304e-13,-6.3219539274706e-14,4.1582979668515e-13,-0.0015889789070093,0.0015889789069543,-0.0015889789082632,0.0015889789086737,-0.0015889789068518,0.0015889789071085,-0.0015889789081149,0.0015889789088285,-0.0013027607863916,0.0013027607862269,-0.0013027607863551,0.0013027607875081,4.3478377647761e-14,-4.333308367187e-13,-5.3091157648912e-12,4.931777782427e-12,-0.0014977492431215,0.0014977492427386,-0.0015889789087842,0.0015889789051714,-0.0015889789069157,0.0015889789100674,-0.0015889789089283,0.0015889789050133,-0.0015889789070587,0.0015889789099041,-0.0013027607915484,0.0013027607810032,-0.0013027607822277,0.0013027607917185,-0.0014897062090459,0.0014897062125221,-0.0014897062094953,0.0014897062120345,-3.949827041435e-12,-4.6129780178645e-12,-0.00084147850781276,0.00084147849743603,7.929576139245e-13,-9.4732762890886e-12,-0.00091209639201858,0.00091209638578018,-0.0009120963954789,0.00091209638235051,-0.00091209639224648,0.00091209638557356,-0.00091209639572543,0.00091209638214576,-0.00097932746552806,0.00097932745272024,-0.00097932746486343,0.00097932745334976,0.716401685705,128637,2834,0.006220660707139,0.0062206607071517,0.0035022837672913,35.940242335848,0.00020272193868678,0.00020272193868678,0.00020272193868678,1886249.4347697,0.016071802173103
36419200,0.99999188855408,0.016070993312575,0.0057622850920983,0.0057622850921104,0.0045464231283664,-0.0014998922434025,0.00149989224374,-1.6980398907528e-13,5.0299828080662e-13,-6.3065602800889e-14,4.1566244885633e-13,-0.0015917504929016,0.0015917504928467,-0.0015917504936333,0.0015917504940439,-0.0015917504927413,0.0015917504929979,-0.001591750493488,0.0015917504942016,-0.0013041342427243,0.0013041342425595,-0.0013041342425358,0.0013041342436886,4.3386674566874e-14,-4.331062042773e-13,-5.1533149070831e-12,4.7760564182843e-12,-0.0014998922437657,0.0014998922433829,-0.0015917504946032,0.00159175049111,-0.0015917504923591,0.0015917504953913,-0.0015917504947472,0.0015917504909519,-0.0015917504925021,0.0015917504952281,-0.0013041342477116,0.0013041342374658,-0.0013041342385776,0.0013041342477693,-0.0014916616393349,0.0014916616427017,-0.001491661639784,0.0014916616422145,-2.5046773305065e-12,-3.1678086079744e-12,-0.00084398296492594,0.00084398295863695,2.0436997281409e-12,-7.8815507828572e-12,-0.00091360123726404,0.00091360123419636,-0.00091360124060562,0.00091360123088541,-0.00091360123749192,0.00091360123398973,-0.00091360124085209,0.00091360123068065,-0.00098250404768655,0.0009825040381724,-0.00098250404702191,0.00098250403880189,0.73063259848666,128637,2834,0.0062295403732791,0.0062295403732918,0.0035126800639371,37.484276997767,0.00021507421598214,0.00021507421598214,0.00021507421598214,1890587.0266076,0.016100408518614
37419200,0.99999526284002,0.016071045639406,0.0057623039629787,0.0057623039629908,0.004546437713437,-0.0015014118327144,0.0015014118330517,-1.6986516367703e-13,5.0293640034408e-13,-6.3114601304019e-14,4.1558230424587e-13,-0.0015929009613944,0.0015929009613394,-0.0015929009618839,0.0015929009622944,-0.0015929009612332,0.0015929009614896,-0.0015929009617396,0.001592900962453,-0.001305709573907,0.0013057095737421,-0.0013057095736481,0.0013057095748008,4.3385321667028e-14,-4.3307223811595e-13,-4.9044155889689e-12,4.5272477967904e-12,-0.0015014118330775,0.0015014118326948,-0.0015929009630062,0.0015929009596838,-0.0015929009606995,0.0015929009635608,-0.0015929009631502,0.0015929009595258,-0.0015929009608424,0.0015929009633976,-0.0013057095786447,0.001305709568885,-0.0013057095699393,0.0013057095786452,-0.0014935217264564,0.0014935217296556,-0.0014935217269054,0.0014935217291684,-1.7987036938171e-12,-2.4618334103262e-12,-0.0008434269872015,0.0008434269828847,2.4878984228815e-12,-6.9291261434821e-12,-0.00091389109289011,0.00091389109124208,-0.00091389109606073,0.00091389108810208,-0.00091389109311799,0.00091389109103545,-0.00091389109630722,0.00091389108789732,-0.00098181315930053,0.00098181315150293,-0.00098181315863595,0.00098181315213245,0.71957515717165,128637,2834,0.0062358263038998,0.0062358263039125,0.0035103857767504,37.680911734,0.000216647293872,0.000216647293872,0.000216647293872,1868328.0577583,0.016110853009683
38419200,0.99999720221158,0.01607107683486,0.0057623151878906,0.0057623151879027,0.004546446459067,-0.00150028673865,0.0015002867389872,-1.6987322225437e-13,5.0291545980733e-13,-6.3040544742866e-14,4.1547083706288e-13,-0.0015920841989039,0.0015920841988489,-0.0015920841992703,0.0015920841996808,-0.0015920841987438,0.0015920841990002,-0.0015920841991249,0.0015920841998382,-0.0013040935939668,0.0013040935938018,-0.0013040935936742,0.0013040935948268,4.3339264250521e-14,-4.3293435802203e-13,-4.1534398521087e-12,3.776350344648e-12,-0.001500286739013,0.0015002867386303,-0.0015920842002736,0.0015920841974459,-0.0015920841983279,0.0015920842006946,-0.0015920842004176,0.0015920841972879,-0.0015920841984708,0.0015920842005316,-0.0013040935979753,0.0013040935896894,-0.0013040935906944,0.0013040935979267,-0.0014923712620455,0.0014923712647457,-0.0014923712624943,0.0014923712642587,-1.3672527669823e-12,-2.0303735911276e-12,-0.00084153052237486,0.00084153051921214,2.18098557827e-12,-5.740830548038e-12,-0.00091169310600538,0.00091169310482125,-0.00091169310867969,0.00091169310217752,-0.00091169310623325,0.00091169310461462,-0.00091169310892616,0.00091169310197275,-0.00098036689053043,0.00098036688416358,-0.00098036688986587,0.00098036688479311,0.74581354471493,128637,2834,0.0062311685185703,0.006231168518583,0.0035025160987398,37.19478729107,0.00021275829832856,0.00021275829832856,0.00021275829832856,1867300.9393998,0.016093390340867
38880000,0.99999787949404,0.016071087790094,0.005762319128304,0.005762319128316,0.0045464495334738,-0.001501525638262,0.0015015256385991,-1.6991227988472e-13,5.0287451988155e-13,-6.3134100708325e-14,4.1546874889138e-13,-0.0015927489397054,0.0015927489396503,-0.0015927489401629,0.0015927489405733,-0.0015927489395459,0.0015927489398022,-0.001592748940017,0.0015927489407302,-0.001305754808708,0.001305754808543,-0.0013057548084395,0.001305754809592,4.3367910434223e-14,-4.329925079e-13,-4.1626730837691e-12,3.7856257120272e-12,-0.001501525638625,0.0015015256382423,-0.0015927489410821,0.0015927489382452,-0.0015927489392134,0.0015927489415893,-0.001592748941226,0.0015927489380872,-0.0015927489393563,0.0015927489414262,-0.0013057548127284,0.0013057548044256,-0.0013057548054477,0.001305754812697,-0.0014939338233353,0.0014939338260428,-0.0014939338237842,0.0014939338255557,-1.60438784907e-12,-2.2675048175196e-12,-0.00084090570243239,0.00084090569859358,1.9596490458315e-12,-5.9852417873248e-12,-0.00091227162474035,0.00091227162300645,-0.00091227162742332,0.00091227162035408,-0.00091227162496823,0.00091227162279983,-0.00091227162766982,0.00091227162014931,-0.00097931437837254,0.00097931437147597,-0.00097931437770805,0.00097931437210554,0.7499728059643,128637,2834,0.0062362901621741,0.0062362901621868,0.0034999350002443,37.193619221476,0.00021274895377181,0.00021274895377181,0.00021274895377181,1845136.1812983,0.016101178193617
