time,ASR_ext,ASR_strain,ASR_strain_xx,ASR_strain_yy,ASR_strain_zz,disp_x_101,disp_x_102,disp_x_103,disp_x_104,disp_x_105,disp_x_106,disp_x_p1_neg,disp_x_p1_pos,disp_x_p2_neg,disp_x_p2_pos,disp_x_p3_neg,disp_x_p3_pos,disp_x_p4_neg,disp_x_p4_pos,disp_x_p5_neg,disp_x_p5_pos,disp_x_p6_neg,disp_x_p6_pos,disp_y_101,disp_y_102,disp_y_103,disp_y_104,disp_y_105,disp_y_106,disp_y_p1_neg,disp_y_p1_pos,disp_y_p2_neg,disp_y_p2_pos,disp_y_p3_neg,disp_y_p3_pos,disp_y_p4_neg,disp_y_p4_pos,disp_y_p5_neg,disp_y_p5_pos,disp_y_p6_neg,disp_y_p6_pos,disp_y_p7_neg,disp_y_p7_pos,disp_y_p8_neg,disp_y_p8_pos,disp_z_101,disp_z_102,disp_z_103,disp_z_104,disp_z_105,disp_z_106,disp_z_p1_neg,disp_z_p1_pos,disp_z_p2_neg,disp_z_p2_pos,disp_z_p3_neg,disp_z_p3_pos,disp_z_p4_neg,disp_z_p4_pos,disp_z_p5_neg,disp_z_p5_pos,disp_z_p6_neg,disp_z_p6_pos,humidity,ndof,nelem,strain_xx,strain_yy,strain_zz,temp,thermal_strain_xx,thermal_strain_yy,thermal_strain_zz,vonmises,vstrain
2419200,0,0,0,0,0,0,0,0,0,0,0,0,0,0,0,0,0,0,0,0,0,0,0,0,0,0,0,0,0,0,0,0,0,0,0,0,0,0,0,0,0,0,0,0,0,0,0,0,0,0,0,0,0,0,0,0,0,0,0,0,0,0,0,0,0,0,0,0,0,0,0,0,0,0,0
3419200,0.15861567949412,0.0030029625129262,0.0010009875043087,0.0010009875043087,0.0010009875043087,-0.0002708949252477,0.00027088840902511,-2.4591630107388e-09,-2.4591630932043e-09,-2.064475792451e-09,-2.8033091832846e-09,-0.00027558501704706,0.00027557988711457,-0.00027558553654785,0.00027558040660795,-0.00027558526900838,0.00027557963649228,-0.00027558577862926,0.0002755801461123,-0.0002711581309499,0.00027115273517616,-0.00027115856188122,0.00027115316608669,-2.2015246026552e-10,4.6234512937955e-10,-2.5204449018442e-10,4.8443093489394e-10,-0.00028686547877208,0.00028686571205712,-0.00028967157129126,0.00028967127753567,-0.00028967180723491,0.00028967205664937,-0.00028967182552563,0.00028967203773206,-0.00028967206145215,0.00028967281685537,-0.00028306717803389,0.00028306693584084,-0.00028306691142253,0.00028306809190584,-0.00028306714123736,0.00028306697323763,-0.0002830669234687,0.0002830680794856,-2.4645365335271e-09,-2.4645364421917e-09,-0.00027089493064221,0.0002708884036306,-2.0470460473396e-09,-2.8322362660097e-09,-0.00027558501052074,0.00027557988844647,-0.00027558528608526,0.000275579624548,-0.00027558553068749,0.00027558040861737,-0.00027558579509213,0.00027558013357062,-0.00027115857595205,0.00027115315297155,-0.00027115814645817,0.00027115272345629,0.75746877217741,122718,2924,0.0011280776666182,0.0011945561685757,0.0011280776666182,31.79570491262,0.00016956563930096,0.00016956563930096,0.00016956563930096,1234056.6535666,0.003456673872489
4419200,0.35001072403518,0.0064709597683095,0.0020995299286688,0.0022718999109696,0.0020995299286711,-0.00052354858319009,0.00052353279944373,-6.423850145374e-09,-6.4238467101816e-09,-5.1978835972131e-09,-7.6373079165444e-09,-0.00053997931087788,0.00053996597487085,-0.00053998093937394,0.00053996760335329,-0.0005399801647192,0.00053996514365491,-0.00053998174788888,0.00053996672681138,-0.00052529827942498,0.0005252842072038,-0.00052529962970627,0.00052528555744898,-5.8503346321752e-10,1.5973337341244e-09,-6.3704141552792e-10,1.6162466864202e-09,-0.00060426001433221,0.00060426099713214,-0.00061992690223617,0.00061992623832,-0.00061992813459875,0.00061992913394237,-0.0006199281608991,0.00061992910724439,-0.00061992939327862,0.0006199320029213,-0.00058500658121765,0.00058500613353817,-0.00058500635363243,0.00058501028065841,-0.00058500652410288,0.00058500619157859,-0.00058500636045603,0.00058501027328153,-6.4340080287727e-09,-6.4340042956882e-09,-0.00052354859330575,0.00052353278932864,-5.1875185189878e-09,-7.6694440149217e-09,-0.0005399793048759,0.00053996596866775,-0.00053998019034253,0.0005399651301775,-0.00053998093490393,0.0005399675986965,-0.00053998177204572,0.00053996671189182,-0.00052529964899067,0.00052528554094037,-0.00052529830286047,0.00052528419480889,0.73992840791513,122718,2924,0.0021790591602844,0.0025145636154946,0.0021790591602856,33.599610848601,0.00018399688678881,0.00018399688678881,0.00018399688678881,2443143.590476,0.0068963698179317
5419200,0.550306721804,0.0099658210440317,0.0031484082621712,0.0036690045196862,0.0031484082621744,-0.00075972717003053,0.0007597175130735,-3.9406416317355e-09,-3.9406360715877e-09,-3.411515599349e-09,-3.832225912776e-09,-0.00079272272361371,0.00079271370377595,-0.00079272392384982,0.00079271490400808,-0.00079272292449918,0.00079271355273172,-0.00079272408753465,0.00079271471575255,-0.00076171484963015,0.00076170638211111,-0.00076171547445495,0.00076170700688714,1.5505604852651e-10,3.5494444595553e-10,2.1287474929312e-10,2.8993084598814e-10,-0.00095782136653301,0.00095782187045004,-0.00099794063006634,0.00099794105646365,-0.00099794177221441,0.00099794223031025,-0.00099794173457904,0.00099794227024248,-0.00099794287677349,0.00099794344411861,-0.00090998513503258,0.00090998560647818,-0.00090998484602608,0.00090998553172335,-0.000909985200537,0.0009099855388886,-0.00090998480635148,0.0009099855727724,-3.9275936336223e-09,-3.9275877367142e-09,-0.0007597271567296,0.00075971752637596,-3.4640953931459e-09,-3.7517018997022e-09,-0.00079272274296578,0.00079271369484001,-0.00079272287887965,0.00079271358826664,-0.0007927239418573,0.00079271489372307,-0.00079272404294728,0.00079271475233233,-0.00076171543736499,0.00076170704407794,-0.00076171481122913,0.00076170641795481,0.72499638738019,122718,2924,0.0031606169564264,0.0039828838798267,0.0031606169564296,36.267921608572,0.00020534337286857,0.00020534337286857,0.00020534337286857,3282823.6156157,0.010357443701543
6419200,0.70677006218918,0.012184787616618,0.003772530672355,0.0046397262719061,0.0037725306723572,-0.00088621694478191,0.00088620919916421,-3.0781523630013e-09,-3.0774159993973e-09,-3.1344818239598e-09,-3.318082123457e-09,-0.00093926820260762,0.00093926098123965,-0.00093926904353432,0.00093926182203331,-0.0009392682956272,0.0009392609183745,-0.00093926911670934,0.00093926173931073,-0.00088203568194125,0.00088202940822383,-0.00088203557274034,0.00088202929946212,-1.2806056863165e-10,-7.0686316081565e-11,-6.8778675799842e-11,-1.2844636275767e-10,-0.0012065627315301,0.0012065625327147,-0.0012801441364014,0.0012801439074133,-0.001280145284586,0.0012801450430951,-0.0012801452447861,0.001280145083602,-0.0012801463929669,0.0012801462192734,-0.0011227386944954,0.0011227385627768,-0.0011227396958874,0.0011227394852659,-0.0011227387685039,0.00112273848711,-0.0011227396608124,0.0011227395215532,-3.0686348372239e-09,-3.0678980909957e-09,-0.00088621693514489,0.00088620920880248,-3.182516704564e-09,-3.2489954082872e-09,-0.00093926821793728,0.00093926097179642,-0.00093926826159433,0.00093926094682427,-0.00093926905809696,0.00093926181182165,-0.00093926908315787,0.0009392617682549,-0.00088203554319307,0.00088202932953015,-0.00088203565095044,0.00088202943682661,0.59839168540088,122718,2924,0.00368603031603,0.0050145587400254,0.0036860303160326,36.738619276808,0.00020910895421447,0.00020910895421447,0.00020910895421447,3635712.6191988,0.012463782923084
7419200,0.83216389397727,0.013735046018213,0.0042011191904445,0.0053328076373209,0.0042011191904473,-0.00096884435960757,0.00096883660197869,-2.9937029344855e-09,-2.992970066935e-09,-3.1192689933466e-09,-3.1336339535161e-09,-0.0010370514406918,0.0010370443906978,-0.0010370522465852,0.001037045196454,-0.0010370514791655,0.001037044382952,-0.001037052264989,0.0010370451686248,-0.0009587559231218,0.00095874985134829,-0.00095875579184518,0.0009587497204139,-4.1935531927697e-11,-1.509836989634e-10,3.8048060010825e-11,-2.2667347369274e-10,-0.0013960642153019,0.0013960640251873,-0.0015027392285054,0.001502739123233,-0.0015027403983901,0.0015027401542453,-0.0015027403458255,0.0015027402078811,-0.0015027415155558,0.0015027412387352,-0.0012783942266373,0.0012783942513862,-0.0012783954538538,0.0012783949925214,-0.0012783943265641,0.0012783941495289,-0.0012783954081614,0.0012783950396221,-2.9840445658986e-09,-2.9833112361837e-09,-0.00096884434987571,0.00096883661171172,-3.1850405781378e-09,-3.0460125645688e-09,-0.0010370514624955,0.0010370443753554,-0.001037051438744,0.0010370444173003,-0.0010370522675562,0.0010370451802744,-0.0010370522250268,0.0010370452034464,-0.00095875575589093,0.00095874975673018,-0.00095875588558093,0.0009587498860479,0.52694121020036,122718,2924,0.0040291950629276,0.0057998083487202,0.00402919506293,40.762780078451,0.00024130224062761,0.00024130224062761,0.00024130224062761,3745188.7075797,0.013954883127151
8419200,0.90783576204873,0.014571343341771,0.0044309081481877,0.0057095270453932,0.0044309081481905,-0.00099760699003073,0.0009976019654029,-1.9404928243534e-09,-1.9397514233916e-09,-2.2735327562544e-09,-1.9085215937989e-09,-0.0010774040522026,0.0010773992474984,-0.0010774046296991,0.0010773998248695,-0.0010774039610234,0.0010773993680974,-0.0010774045230205,0.0010773999299552,-0.00098447167321176,0.00098446794636641,-0.00098447143469228,0.00098446770820098,5.5513167904944e-11,-4.0558335382459e-10,1.6464968135937e-10,-5.0555381697204e-10,-0.0015035950012979,0.0015035946585354,-0.0016306339511852,0.0016306339677045,-0.001630635056303,0.0016306346430691,-0.0016306349861079,0.0016306347150467,-0.0016306360909673,0.0016306353901486,-0.0013644594476173,0.001364459593402,-0.0013644610015732,0.0013644598727512,-0.0013644595835532,0.0013644594546804,-0.0013644609414262,0.001364459934894,-1.9275535741938e-09,-1.9268117077544e-09,-0.00099760697702159,0.00099760197841288,-2.3600089229944e-09,-1.7925920777916e-09,-0.0010774040805449,0.0010773992275706,-0.0010774039079595,0.0010773994133112,-0.0010774046568397,0.0010773998037353,-0.0010774044706087,0.0010773999758337,-0.00098447138691443,0.00098446775598232,-0.00098447162320458,0.00098446799189194,0.47156008474719,122718,2924,0.004148751484622,0.0062450711040641,0.0041487514846237,41.433442202373,0.00024666753761898,0.00024666753761898,0.00024666753761898,3641928.9407065,0.014649110937132
9419200,0.94971651765581,0.014971011730195,0.0045408347275868,0.0058893422750184,0.0045408347275895,-0.0010013662282912,0.0010013626954062,-1.3476521145537e-09,-1.346909698559e-09,-1.9250508481834e-09,-1.0731289895872e-09,-0.0010889801034288,0.0010889764763127,-0.0010889805639564,0.0010889769367234,-0.0010889798518223,0.001088976760752,-0.0010889802986526,0.0010889772074522,-0.0009864870559145,0.00098648472940602,-0.00098648679149576,0.00098648446536275,1.9301850350545e-10,-7.3860709600139e-10,3.5510042698453e-10,-8.8486681974958e-10,-0.0015587534026485,0.0015587528704364,-0.0016978386487558,0.0016978388317438,-0.0016978398078552,0.00169783917381,-0.0016978397051511,0.001697839279747,-0.0016978408639337,0.0016978396214934,-0.0014063925961579,0.0014063929519182,-0.0014063946581542,0.0014063926250788,-0.001406392798049,0.0014063927455548,-0.0014063945701066,0.0014063927162814,-1.3283183708444e-09,-1.3275755433314e-09,-0.0010013662088712,0.0010013627148273,-2.0508761405535e-09,-9.0314923558268e-10,-0.0010889801437283,0.0010889764476491,-0.0010889797747588,0.0010889768270493,-0.0010889806024469,0.0010889769062471,-0.0010889802225423,0.0010889772747151,-0.0009864867212278,0.00098648453523646,-0.00098648698249155,0.00098648479609529,0.40621133923259,122718,2924,0.0041645022468065,0.0064733645090297,0.0041645022468088,41.145340356203,0.00024436272284963,0.00024436272284963,0.00024436272284963,3499050.4892911,0.014912787965388
10419200,0.97066306563938,0.015187141259841,0.0046014465321363,0.0059842481955658,0.0046014465321389,-0.00099671718092053,0.00099671666280656,-1.6035831030708e-10,-1.5961601202204e-10,-1.1135588907627e-09,4.9340969161379e-10,-0.0010880224388987,0.0010880212289716,-0.0010880226767994,0.0010880214667595,-0.001088021937376,0.0010880217681036,-0.0010880221651081,0.0010880219957095,-0.00098150737813104,0.00098150778870173,-0.00098150706418628,0.00098150747514144,4.0843557148542e-10,-1.2466382257344e-09,6.5924572155456e-10,-1.471406724711e-09,-0.001583005551512,0.0015830047360256,-0.0017278457546335,0.001727846214907,-0.0017278469621508,0.0017278459917865,-0.0017278468048696,0.0017278461548284,-0.0017278480120409,0.0017278459313567,-0.0014240130692427,0.0014240137675186,-0.0014240158780949,0.0014240124488592,-0.0014240133817944,0.0014240134476022,-0.0014240157424422,0.0014240125896579,-1.2980828078436e-10,-1.2906548593212e-10,-0.0009967171502455,0.0009967166934825,-1.305616931299e-09,7.5527650707299e-10,-0.0010880224988251,0.0010880211858865,-0.0010880218194651,0.0010880218705414,-0.0010880227339298,0.0010880214208749,-0.0010880220486377,0.001088022099602,-0.00098150695551722,0.00098150758276831,-0.00098150726486507,0.00098150789170429,0.43665130715676,122718,2924,0.0041453066149958,0.0065737119689986,0.0041453066149977,38.099085400657,0.00021999268320526,0.00021999268320526,0.00021999268320526,3424117.7963162,0.014975685902589
11419200,0.98275816439633,0.015302872611609,0.0046339398884246,0.0060349928347573,0.0046339398884272,-0.00099121143010193,0.00099120891310078,-9.3349215269264e-10,-9.327428949253e-10,-2.0216494750091e-09,-1.2106566635053e-10,-0.0010884442736917,0.0010884411958334,-0.001088444655506,0.0010884415775507,-0.0010884436840045,0.0010884418314546,-0.00108844405112,0.0010884421984582,-0.00097614076257098,0.00097613961656538,-0.00097614051176843,0.0009761393661886,5.2527408241382e-10,-1.446783584637e-09,9.2209482510663e-10,-1.8129732819695e-09,-0.0016024888680671,0.0016024879732851,-0.0017492413918586,0.0017492420545361,-0.0017492429226956,0.0017492417794936,-0.0017492426730822,0.0017492420393675,-0.0017492442035596,0.0017492417639558,-0.001440620113275,0.0014406212277487,-0.0014406235930025,0.0014406193860555,-0.001440620612907,0.0014406207155078,-0.0014406233685646,0.0014406196192975,-8.8656944292679e-10,-8.8581952285104e-10,-0.00099121138291387,0.00099120896028983,-2.3356072955651e-09,3.0104045737196e-10,-0.0010884443670007,0.0010884411223178,-0.0010884435017864,0.0010884419961444,-0.001088444745032,0.0010884415002498,-0.0010884438704266,0.0010884423646888,-0.00097614033931888,0.00097613953742614,-0.00097614058496051,0.00097613978261911,0.40445605707229,122718,2924,0.0041225460731952,0.006654265470024,0.0041225460731973,37.627948059173,0.00021622358447338,0.00021622358447338,0.00021622358447338,3289353.9670636,0.015011270553713
12419200,0.98969484915436,0.015377552991621,0.0046552125591146,0.0060671278733898,0.0046552125591172,-0.00098811485881802,0.00098811280521422,-7.5324050502146e-10,-7.5249184797956e-10,-1.9359792405179e-09,1.5104538107905e-10,-0.0010870189645887,0.001087016240127,-0.0010870193224861,0.0010870165979281,-0.0010870183154738,0.0010870169378615,-0.0010870186581355,0.0010870172804139,-0.00097295593869097,0.00097295526781589,-0.00097295565521511,0.00097295498476345,5.7848637313839e-10,-1.5741605363879e-09,1.0645789265504e-09,-2.026805293019e-09,-0.0016122009419533,0.0016121999755752,-0.0017613572836279,0.0017613580515485,-0.0017613589006344,0.0017613576289166,-0.0017613585947657,0.0017613579479858,-0.001761360211392,0.0017613575249685,-0.0014470775649186,0.001447078899015,-0.0014470813549819,0.001447076666528,-0.001447078179032,0.0014470782688948,-0.0014470810761638,0.0014470769565215,-6.9522095452118e-10,-6.944716355153e-10,-0.00098811480046716,0.00098811286356612,-2.3230159536337e-09,6.7208908875365e-10,-0.0010870190770537,0.0010870161491325,-0.0010870180932233,0.0010870171414962,-0.0010870194305502,0.0010870165025295,-0.0010870184374436,0.001087017485621,-0.00097295544281162,0.00097295519581888,-0.00097295572074946,0.00097295547330612,0.45322610794666,122718,2924,0.0041097433044042,0.0066944416774918,0.0041097433044064,36.803860571014,0.00020963088456811,0.00020963088456811,0.00020963088456811,3249961.8647017,0.015026065427398
13419200,0.99356886490593,0.015415745230767,0.0046660609371323,0.0060836233564996,0.004666060937135,-0.0009789304847658,0.00097892971959899,-2.5724518236567e-10,-2.5649176270077e-10,-1.5571538210619e-09,7.7548214249404e-10,-0.0010821680339379,0.0010821663117323,-0.0010821683020189,0.0010821665797272,-0.0010821673034175,0.0010821670921407,-0.0010821675574078,0.001082167346032,-0.00096397280304552,0.00096397326258953,-0.00096397249767492,0.00096397295766949,6.7318816097554e-10,-1.714115885054e-09,1.2360115148731e-09,-2.2403574402063e-09,-0.0016177848418474,0.001617783833037,-0.0017671934458041,0.0017671943862961,-0.0017671950830503,0.0017671937200597,-0.0017671947287119,0.0017671940896942,-0.0017671963655692,0.0017671934230638,-0.0014514834064857,0.0014514849945896,-0.0014514874967175,0.0014514823105471,-0.0014514841184216,0.0014514842641738,-0.0014514871717143,0.0014514826484475,-1.9392788357745e-10,-1.931738139667e-10,-0.00097893042102375,0.00097892978334206,-2.0111056002809e-09,1.3767237066066e-09,-0.0010821681672068,0.0010821662016553,-0.0010821670504827,0.001082167325147,-0.0010821684304065,0.0010821664647655,-0.0010821673061038,0.0010821675806828,-0.00096397225514588,0.00096397319863165,-0.00096397255467625,0.00096397349768414,0.4150894025916,122718,2924,0.0040716955265142,0.0067174812351206,0.0040716955265164,34.793615418097,0.00019354892334478,0.00019354892334478,0.00019354892334478,3161583.5953837,0.014972233853395
14419200,0.9958057568117,0.015436123279349,0.0046718633664643,0.006092396546418,0.004671863366467,-0.00097338827645301,0.00097338774036895,-1.6663391726439e-10,-1.6588319559548e-10,-1.5817450783618e-09,9.837719847941e-10,-0.0010763457807666,0.0010763442064552,-0.0010763460296004,0.0010763444552007,-0.0010763449754982,0.001076345065049,-0.001076345209864,0.0010763452993133,-0.0009583217558943,0.00095832248227829,-0.00095832145483528,0.00095832218166008,7.3646171442368e-10,-1.8800294212152e-09,1.3860786522486e-09,-2.4893929082849e-09,-0.0016166498340559,0.0016166487259738,-0.00176773406652,0.0017677351164307,-0.0017677358098429,0.0017677342928009,-0.0017677354011868,0.0017677347198201,-0.0017677371441118,0.0017677338957874,-0.0014485964895085,0.0014485982942132,-0.0014486009665099,0.0014485952134755,-0.0014485973123003,0.0014485974494657,-0.0014486005894808,0.001448595605816,-9.1283164847267e-11,-9.0531806197817e-11,-0.0009733882006201,0.00097338781620284,-2.1045050296395e-09,1.681615567739e-09,-0.0010763459315981,0.0010763440810419,-0.0010763446823305,0.0010763453366425,-0.0010763461748616,0.0010763443242134,-0.0010763449184355,0.0010763455726595,-0.00095832117244468,0.00095832246226619,-0.00095832146710703,0.00095832275645997,0.38312450045663,122718,2924,0.0040487086101902,0.0067127905846244,0.0040487086101923,32.642856390153,0.00017634285112122,0.00017634285112122,0.00017634285112122,3159139.511811,0.014920808642333
15419200,0.99697051799404,0.015450315600126,0.0046759620482342,0.0060983915036552,0.0046759620482369,-0.00096181720510008,0.00096181999751439,1.128509533994e-09,1.129258367645e-09,-5.9256207570152e-10,2.5956782783986e-09,-0.0010647056333053,0.0010647067584808,-0.0010647056407009,0.0010647067657868,-0.0010647046202843,0.0010647078278763,-0.0010647046170543,0.0010647078245436,-0.00094674563371088,0.00094674928898585,-0.00094674528824449,0.00094674894395753,9.1953880048555e-10,-2.2863264648841e-09,1.6761458508948e-09,-2.9943660051151e-09,-0.0016081040392531,0.0016081027155795,-0.0017600296530198,0.0017600309757808,-0.0017600313929281,0.0017600295944193,-0.0017600309178295,0.0017600300911883,-0.0017600326573381,0.0017600287094219,-0.0014391529644771,0.0014391551282249,-0.0014391580703246,0.0014391511272171,-0.0014391539221118,0.0014391541448775,-0.0014391576323506,0.0014391515831115,1.2173649655565e-09,1.2181144995705e-09,-0.0009618171156938,0.0009618200869216,-1.1985561228743e-09,3.4078407984793e-09,-0.0010647058075131,0.0010647066142179,-0.0010647042782014,0.0010647081444893,-0.0010647058083386,0.0010647066149502,-0.0010647042770789,0.0010647081432776,-0.00094674495873214,0.00094674927110653,-0.00094674529663723,0.00094674960854532,0.51103778709309,122718,2924,0.0040007047918369,0.0066774216208778,0.0040007047918388,27.067065145303,0.00013173652116242,0.00013173652116242,0.00013173652116242,3172194.5052925,0.01478748039416
16419200,0.99771832358895,0.015458599245909,0.0046783327024848,0.0061019338409365,0.0046783327024874,-0.00094852217175691,0.00094852231468914,9.4020226577499e-11,9.4778166209211e-11,-1.6255293929429e-09,1.5766426044154e-09,-0.0010578164860977,0.0010578152345346,-0.0010578166996801,0.0010578154480421,-0.00105781547679,0.0010578163053895,-0.0010578156745606,0.0010578165030724,-0.00093396369730879,0.00093396518697944,-0.00093396339319178,0.00093396488334379,9.8626218733776e-10,-2.2635725069725e-09,1.8299530191326e-09,-3.0584793223208e-09,-0.0016106859552135,0.0016106847209713,-0.0017610168904762,0.0017610183576682,-0.001761018904283,0.0017610171376542,-0.0017610183729777,0.0017610176924816,-0.001761020386381,0.0017610164720591,-0.0014420381917933,0.0014420406549713,-0.0014420435970481,0.0014420365141822,-0.0014420392619102,0.0014420395568529,-0.0014420431038787,0.0014420370268575,1.8295439544233e-10,1.8371301648757e-10,-0.00094852208209571,0.00094852240435143,-2.317231972948e-09,2.4771512007606e-09,-0.0010578166896396,0.001057815061283,-0.0010578151053996,0.0010578166513134,-0.0010578168964036,0.0010578152679685,-0.0010578153051778,0.0010578168510171,-0.00093396303441686,0.00093396523979076,-0.00093396333122402,0.00093396553608913,0.46538451425637,122718,2924,0.0039456007054222,0.0066879956045118,0.0039456007054245,24.41706150037,0.00011053649200296,0.00011053649200296,0.00011053649200296,3051108.9675826,0.014686409880556
17419200,0.99822053008067,0.015464896552805,0.0046801544499259,0.0061045876529502,0.0046801544499286,-0.00094268620329267,0.00094268617547315,2.8300926172456e-11,2.9054949787253e-11,-1.6976107522689e-09,1.5115811742327e-09,-0.0010503419197081,0.0010503405579796,-0.0010503421385517,0.0010503407767433,-0.0010503409090162,0.001050341631606,-0.0010503411115523,0.0010503418340489,-0.00092797739238673,0.00092797874837095,-0.0009279770941264,0.00092797845057267,9.6222612471121e-10,-2.2936986698154e-09,1.8872124867187e-09,-3.168923354155e-09,-0.0016063380783585,0.0016063367909427,-0.0017587243098399,0.0017587257800769,-0.0017587263844207,0.0017587245125198,-0.001758725802266,0.001758725121787,-0.0017587278764328,0.0017587238538108,-0.0014357610053361,0.0014357635790124,-0.0014357665930988,0.0014357592901373,-0.0014357621803809,0.0014357623719731,-0.0014357660490515,0.0014357598564627,1.3169420297956e-10,1.3244890221813e-10,-0.00094268609913125,0.00094268627963559,-2.4519724101613e-09,2.5078876298564e-09,-0.0010503421362015,0.0010503403727552,-0.0010503404974971,0.0010503420173377,-0.0010503423476188,0.0010503405840887,-0.0010503407019906,0.0010503422217516,-0.00092797669452666,0.00092797884778926,-0.00092797698522169,0.00092797913799453,0.52521873377382,122718,2924,0.0039213761476256,0.0066700309272329,0.0039213761476278,21.979052759269,9.1032422074153e-05,9.1032422074153e-05,9.1032422074153e-05,3069822.5140215,0.014619011161859
18419200,0.99853264389579,0.015468656772981,0.0046812373247463,0.0061061821234854,0.004681237324749,-0.00092873603999142,0.00092873803504836,8.0366183502635e-10,8.0441838068852e-10,-1.0268841719155e-09,2.4064554327913e-09,-0.0010394037486465,0.0010394040210246,-0.0010394038246284,0.0010394040969323,-0.0010394026612638,0.001039405170715,-0.0010394027233032,0.0010394052326673,-0.00091420304368984,0.00091420611578129,-0.00091420271730871,0.00091420578988181,1.0499569365951e-09,-2.412483057975e-09,2.0445259461358e-09,-3.3549017702891e-09,-0.0016018969068863,0.0016018955905947,-0.0017541031168116,0.001754104757789,-0.0017541051406746,0.0017541031953087,-0.001754104514288,0.0017541038504431,-0.0017541065377347,0.0017541022875417,-0.0014308966196103,0.0014308994264243,-0.0014309024318159,0.0014308946950736,-0.0014308978835477,0.0014308981285313,-0.0014309018453472,0.001430895305205,9.0960005093106e-10,9.1035722863803e-10,-0.00092873593318873,0.00092873814185201,-1.8448128190877e-09,3.4735527902501e-09,-0.0010394039861265,0.0010394038160676,-0.0010394022241062,0.0010394055811504,-0.0010394040543256,0.0010394038841893,-0.0010394022881402,0.0010394056451106,-0.00091420229251126,0.00091420621208018,-0.00091420261117511,0.00091420653023454,0.50516361584657,122718,2924,0.0038635235903114,0.0066515951608658,0.0038635235903135,17.483919026458,5.5071352211666e-05,5.5071352211666e-05,5.5071352211666e-05,3014202.5593101,0.014482934047669
19419200,0.99879098073054,0.015472692539306,0.0046824127202388,0.0061078670988263,0.0046824127202414,-0.00092752051843722,0.00092751824841789,-8.3734471241624e-10,-8.3659030670242e-10,-2.5133001505582e-09,5.94829706949e-10,-0.0010374781871822,0.0010374749263155,-0.0010374785716441,0.001037475310701,-0.001037477215026,0.0010374759643449,-0.0010374775792638,0.0010374763284932,-0.00091289548995334,0.00091289498721311,-0.00091289523385055,0.00091289473158443,9.4310392223431e-10,-2.2335908364214e-09,1.9856709409981e-09,-3.2275175119084e-09,-0.0016027831328849,0.0016027818853961,-0.001756231936967,0.001756233448686,-0.0017562342345192,0.0017562323251093,-0.0017562335771966,0.0017562330134467,-0.0017562358743266,0.0017562318894428,-0.0014305708486169,0.0014305736510949,-0.0014305766934171,0.0014305693015367,-0.0014305721764359,0.0014305722867467,-0.0014305760735359,0.0014305699468905,-7.2283676239191e-10,-7.2208172961941e-10,-0.00092752040304134,0.00092751836381482,-3.3718122362742e-09,1.7223065887748e-09,-0.0010374784320039,0.0010374747127724,-0.0010374767545077,0.0010374763998306,-0.0010374788085077,0.0010374750891963,-0.0010374771204703,0.0010374767657173,-0.00091289478405596,0.00091289517913871,-0.00091289503281951,0.00091289542740045,0.65325215552177,122718,2924,0.0038584723724436,0.0066552765905064,0.0038584723724458,17.551530004448,5.5612240035587e-05,5.5612240035587e-05,5.5612240035587e-05,3008764.1330303,0.014476414408067
20419200,0.99901578919277,0.015476454975119,0.0046835062261371,0.0061094425228424,0.0046835062261397,-0.00092135873729718,0.00092135554631247,-1.1991131478686e-09,-1.1983518347188e-09,-2.7404060121392e-09,1.0025851728876e-10,-0.0010367347578482,0.0010367307518445,-0.0010367352000103,0.0010367311939418,-0.0010367338722166,0.0010367316997162,-0.0010367342938321,0.0010367321212535,-0.00090715353033338,0.00090715215895487,-0.00090715329643549,0.00090715192556988,8.9189452079344e-10,-2.0268958578405e-09,1.948108561503e-09,-3.0387366065061e-09,-0.0016112278210435,0.0016112267251048,-0.0017636948726827,0.0017636963700359,-0.0017636971561098,0.0017636953868621,-0.0017636964885278,0.0017636960850038,-0.0017636987715283,0.0017636951013986,-0.00143919857136,0.0014392013902422,-0.0014392042299055,0.00143919729667,-0.0014391999186435,0.0014392000065251,-0.0014392035973371,0.001439197954682,-1.0940660742383e-09,-1.0933044712253e-09,-0.00092135863124715,0.00092135565236367,-3.6263490490258e-09,1.2359863034898e-09,-0.0010367350159645,0.0010367305226083,-0.0010367334166199,0.0010367321326323,-0.0010367354505327,0.0010367309571092,-0.0010367338396431,0.0010367325555915,-0.00090715285042811,0.00090715236956094,-0.00090715307783997,0.00090715259643283,0.70012779305903,122718,2924,0.0038329673435287,0.0066901247519987,0.0038329673435312,18.595936470667,6.3967491765336e-05,6.3967491765336e-05,6.3967491765336e-05,2875706.8995989,0.014460046346561
21419200,0.99916878070394,0.015478833868046,0.0046841981633396,0.0061104375413638,0.0046841981633423,-0.00091009043055295,0.00091009054609144,5.2443795901931e-11,5.3205031235581e-11,-1.5260235453591e-09,1.3536418576998e-09,-0.0010266736502921,0.0010266725306786,-0.0010266740964334,0.0010266729767554,-0.0010266727503242,0.0010266734926769,-0.0010266731758726,0.0010266739181475,-0.0008964184473741,0.00089641993138957,-0.00089641821270939,0.00089641969723577,8.8094099038686e-10,-2.0123733540224e-09,1.9383880804571e-09,-3.0256194639317e-09,-0.0016067595464456,0.0016067584539678,-0.0017594297364762,0.001759431220524,-0.0017594320174765,0.0017594302509724,-0.0017594313492533,0.0017594309499554,-0.0017594336298222,0.0017594299799674,-0.0014344065582772,0.0014344093669484,-0.0014344121929881,0.001434405294006,-0.0014344079073247,0.001434407981482,-0.0014344115594481,0.0014344059529881,1.5738592518861e-10,1.581474608801e-10,-0.00091009032463895,0.00091009065200691,-2.4130516744277e-09,2.4905329399898e-09,-0.001026673908862,0.0010266723007847,-0.0010266722946795,0.0010266739258194,-0.0010266743474579,0.0010266727393127,-0.0010266727216134,0.0010266743526891,-0.00089641776651168,0.00089642014148806,-0.00089641799473498,0.00089642036917467,0.64990944923706,122718,2924,0.0037862260093925,0.0066715973046309,0.0037862260093956,15.230038426951,3.7040307415606e-05,3.7040307415606e-05,3.7040307415606e-05,2810270.4522416,0.014346423855236
22419200,0.9992953951496,0.01548085483995,0.0046847888381464,0.0061112771636545,0.004684788838149,-0.00090789101265787,0.00090788985813479,-4.1334184092762e-10,-4.125856287683e-10,-1.9682573507728e-09,8.8267150199151e-10,-0.001023480214655,0.0010234779991179,-0.0010234804481479,0.0010234782325403,-0.0010234793227962,0.0010234789501126,-0.0010234795388415,0.001023479166074,-0.00089391973723996,0.00089392013049588,-0.00089391932148466,0.0008939197152355,8.7205973243849e-10,-2.0557407016797e-09,1.9316325628335e-09,-3.0706097476858e-09,-0.0016066329605039,0.0016066318163865,-0.0017603275032029,0.0017603289806382,-0.0017603295776495,0.0017603277587457,-0.0017603289086029,0.0017603284591171,-0.001760330982611,0.001760327236781,-0.001433249788183,0.0014332525677117,-0.0014332552369141,0.0014332482368396,-0.001433251139888,0.0014332511793932,-0.0014332546024215,0.0014332488969137,-3.0332398314582e-10,-3.025674689774e-10,-0.00090789090175222,0.00090788996904159,-2.8508402315525e-09,2.0258252464817e-09,-0.0010234804688017,0.0010234777738315,-0.0010234788620257,0.0010234793882738,-0.0010234806946702,0.0010234779996256,-0.001023479079458,0.0010234796056356,-0.00089391886998354,0.0008939201647936,-0.00089391927921014,0.00089392057349937,0.66642562144511,122718,2924,0.0037770894170978,0.0066710987012544,0.0037770894171002,14.859516716246,3.4076133729969e-05,3.4076133729969e-05,3.4076133729969e-05,2843092.6109159,0.01432737439036
23419200,0.99940781964811,0.015482546366831,0.0046852814420572,0.0061119834827139,0.0046852814420598,-0.00090695927121044,0.00090695635793118,-1.0966042558181e-09,-1.0958483546716e-09,-2.528906056779e-09,8.3168161975623e-11,-0.0010226059927525,0.0010226023236645,-0.001022606420084,0.0010226027509283,-0.0010226051801889,0.0010226031952451,-0.0010226055874296,0.0010226036024053,-0.00089243858027401,0.0008924373811726,-0.00089243833281642,0.00089243713421832,7.9016282824446e-10,-1.8963636530392e-09,1.8520484538969e-09,-2.9171125726839e-09,-0.0016104884943709,0.0016104874244935,-0.0017665096449247,0.0017665110209303,-0.0017665118444088,0.0017665100965576,-0.0017665111732726,0.0017665107994531,-0.0017665133723127,0.0017665098746311,-0.0014343627513566,0.0014343654594169,-0.0014343681889038,0.0014343615716772,-0.0014343641074329,0.0014343640657751,-0.0014343675499603,0.0014343622369246,-9.8681340235146e-10,-9.8605717067441e-10,-0.00090695916053905,0.00090695646860365,-3.4170530968735e-09,1.2319103024923e-09,-0.0010226062476637,0.0010226020960497,-0.0010226047194566,0.0010226036351277,-0.0010226066674253,0.00102260251574,-0.0010226051278333,0.001022604043437,-0.00089243788000244,0.00089243758534983,-0.00089243812129122,0.00089243782610775,0.62875729639221,122718,2924,0.003773239900586,0.0066870650110069,0.0037732399005883,15.70461045751,4.0836883660081e-05,4.0836883660081e-05,4.0836883660081e-05,2817755.3464266,0.014335763744418
24419200,0.99951393908558,0.01548423063959,0.0046857736326806,0.0061126833742259,0.0046857736326832,-0.00091129837316242,0.00091129412204501,-1.6141005667805e-09,-1.6133469470817e-09,-2.893070580994e-09,-5.982308662518e-10,-0.0010256704795011,0.0010256657641902,-0.001025671001107,0.0010256662857257,-0.0010256697715641,0.0010256665289972,-0.0010256702716418,0.0010256670289915,-0.00089662759104261,0.00089662519509438,-0.00089662735883713,0.00089662496338461,6.7971545910048e-10,-1.7024977325688e-09,1.7238475175828e-09,-2.7098131413039e-09,-0.0016143564715869,0.0016143554812279,-0.0017713966344818,0.0017713978667755,-0.0017713988313928,0.0017713971727751,-0.0017713981709574,0.0017713978649007,-0.0017714003674217,0.0017713971704484,-0.0014374169899045,0.0014374195528503,-0.0014374221670618,0.0014374160588698,-0.0014374183248882,0.0014374181803475,-0.0014374215357094,0.00143741671654,-1.5031257353347e-09,-1.5023717959258e-09,-0.00091129826136261,0.00091129423384591,-3.7659644932521e-09,5.374915594531e-10,-0.0010256707267953,0.0010256655421008,-0.0010256693163301,0.0010256669655109,-0.0010256712410512,0.0010256660562826,-0.0010256698172866,0.0010256674663971,-0.00089662691000032,0.00089662541087594,-0.00089662713654828,0.0008966256369014,0.66255127740754,122718,2924,0.0037912398155563,0.0067030977438793,0.0037912398155586,17.878704764828,5.8229638118624e-05,5.8229638118624e-05,5.8229638118624e-05,2819457.7438639,0.014388536193488
25419200,0.99961069327468,0.015486039817918,0.0046863046574496,0.0061134305030162,0.0046863046574522,-0.00091285951927712,0.00091285537477638,-1.5758064570915e-09,-1.5750509171381e-09,-2.7511892780101e-09,-6.6742557457743e-10,-0.0010288594979263,0.0010288549353297,-0.0010288600096779,0.0010288554470143,-0.001028858856637,0.0010288556297018,-0.0010288593477424,0.0010288561207271,-0.00089825099797185,0.00089824861511153,-0.00089825076122318,0.00089824837887044,6.1569993726014e-10,-1.5545011774384e-09,1.6308126608515e-09,-2.5361586354475e-09,-0.0016203285853244,0.001620327675915,-0.0017770477896223,0.0017770489475258,-0.0017770498913876,0.0017770483309634,-0.0017770492484586,0.0017770490042995,-0.0017770513497766,0.0017770483872849,-0.0014434271517582,0.0014434296029779,-0.0014434320608479,0.0014434263653672,-0.001443428450707,0.0014434282678639,-0.0014434314448459,0.0014434270067798,-1.4712280667866e-09,-1.4704722118774e-09,-0.00091285941388084,0.00091285548017368,-3.6054307923289e-09,4.3538948401777e-10,-0.0010288597413336,0.0010288547152254,-0.0010288584174413,0.0010288560518641,-0.0010288602461308,0.0010288552199519,-0.0010288589092444,0.0010288565436003,-0.00089825032764922,0.00089824881127281,-0.00089825055928761,0.00089824904237669,0.77991302017261,122718,2924,0.0037977419600197,0.0067277841079485,0.0037977419600219,19.923846017686,7.4590768141486e-05,7.4590768141486e-05,7.4590768141486e-05,2773507.1277858,0.014426778293885
26419200,0.99969003830913,0.015487618055444,0.0046867684785878,0.0061140810982662,0.0046867684785905,-0.00090747323579955,0.00090747066566973,-9.731956974494e-10,-9.7243550957973e-10,-2.1590737127507e-09,-5.4343901978157e-11,-0.0010274750554463,0.0010274718273255,-0.001027475464365,0.0010274722361853,-0.0010274744040489,0.0010274725292051,-0.0010274747945296,0.0010274729196143,-0.00089317313290583,0.00089317206354515,-0.00089317285196301,0.00089317178313473,6.3085463376515e-10,-1.5458829115147e-09,1.6196342805198e-09,-2.5013883032455e-09,-0.0016257743984484,0.0016257735126782,-0.0017818156112742,0.0017818167928496,-0.0017818175861916,0.0017818160663756,-0.0017818169596363,0.0017818167218932,-0.0017818189341023,0.0017818159949619,-0.0014489053922491,0.001448907815825,-0.0014489101642181,0.0014489045353104,-0.0014489066571616,0.0014489065162192,-0.0014489095646458,0.0014489051592609,-8.7796406927093e-10,-8.7720322985229e-10,-0.0009074731397279,0.0009074707617421,-2.9977328665245e-09,1.0126194162243e-09,-0.001027475299117,0.0010274716064441,-0.001027473982418,0.0010274729340307,-0.0010274757013736,0.0010274720086388,-0.0010274743735899,0.0010274733251447,-0.0008931724362715,0.00089317219762476,-0.00089317271226114,0.00089317247305756,0.82922923068302,122718,2924,0.0037754431947205,0.0067502434236178,0.003775443194722,20.39348246901,7.8347859752082e-05,7.8347859752082e-05,7.8347859752082e-05,2679123.8632117,0.014404340865088
27419200,0.99975923096759,0.01548885867444,0.0046871328291901,0.0061145930160571,0.0046871328291928,-0.00090684663868659,0.00090684270558681,-1.4991329544162e-09,-1.4983725798291e-09,-2.6227000628557e-09,-6.4093259483154e-10,-0.0010282395380981,0.0010282351782058,-0.0010282400322296,0.0010282356722791,-0.0010282389284684,0.0010282358383986,-0.0010282394029353,0.0010282363127943,-0.00089253640596435,0.0008925341520439,-0.00089253617054009,0.00089253391715322,5.937523687727e-10,-1.4725168620618e-09,1.5603702215843e-09,-2.4072978944665e-09,-0.0016319404077267,0.0016319395569291,-0.0017886163807821,0.0017886175003358,-0.0017886183985499,0.0017886169276171,-0.0017886177859994,0.0017886175686585,-0.0017886198033066,0.0017886169954741,-0.0014539200438458,0.0014539223910482,-0.0014539247465909,0.0014539193397215,-0.0014539212807126,0.0014539211201587,-0.0014539241599436,0.0014539199502695,-1.4067396490399e-09,-1.4059786071422e-09,-0.00090684654549053,0.00090684279878386,-3.4436662560068e-09,4.0203910839389e-10,-0.0010282397770487,0.0010282349612408,-0.0010282385170969,0.0010282362336377,-0.0010282402647127,0.0010282354488432,-0.0010282389921905,0.0010282367086738,-0.00089253576476392,0.00089253432183507,-0.00089253599542548,0.00089253455193545,0.74718867332314,122718,2924,0.0037728685347166,0.0067757378827449,0.0037728685347187,22.250362507144,9.3202900057153e-05,9.3202900057153e-05,9.3202900057153e-05,2629781.7997333,0.014424983225213
28419200,0.99981610357306,0.015490019877848,0.0046874765559435,0.0061150667659586,0.0046874765559461,-0.00091014555875046,0.00091014228635606,-1.2461940106578e-09,-1.2454392780301e-09,-2.3588345323272e-09,-4.0048255565047e-10,-0.001028395243573,0.0010283914729731,-0.0010283956861819,0.0010283919155177,-0.0010283946396777,0.0010283921260743,-0.0010283950636891,0.0010283925500084,-0.00089548391518479,0.00089548219250275,-0.00089548367155762,0.00089548194938955,5.682848849045e-10,-1.4676736582243e-09,1.5104096274933e-09,-2.3782259024782e-09,-0.0016327209937788,0.0016327201221901,-0.0017916649627836,0.001791666032624,-0.0017916669005528,0.0017916654250781,-0.0017916663041747,0.0017916660499658,-0.0017916682414776,0.0017916654419483,-0.0014529317994093,0.0014529340558543,-0.0014529364003223,0.0014529310604372,-0.0014529330045033,0.0014529328168172,-0.0014529358292333,0.0014529316553871,-1.150881724368e-09,-1.1501263145923e-09,-0.00091014546273862,0.00091014238236912,-3.1523940394966e-09,6.2079240343328e-10,-0.0010283954713995,0.0010283912669484,-0.0010283942340807,0.0010283925157528,-0.0010283959075305,0.0010283917030115,-0.0010283946587001,0.0010283929403082,-0.00089548327116587,0.00089548234878587,-0.0008954835099007,0.00089548258697942,0.8493285419621,122718,2924,0.003786537565995,0.0067790297384957,0.0037865375659975,23.440163040143,0.00010272130432114,0.00010272130432114,0.00010272130432114,2660093.0184831,0.014456037584588
29419200,0.99986231638299,0.015490694198074,0.0046876732115676,0.0061153477749365,0.0046876732115702,-0.00090788523464827,0.00090788183374431,-1.2959724338031e-09,-1.2952137770553e-09,-2.3896309981964e-09,-4.6742105399e-10,-0.0010297393343077,0.0010297354506848,-0.0010297397883253,0.0010297359046444,-0.001029738742055,0.0010297360913068,-0.0010297391775512,0.001029736526732,-0.0008933810047887,0.00089337916382622,-0.00089338076291543,0.00089337892249128,5.6888079114115e-10,-1.4329070230858e-09,1.489116577099e-09,-2.3224477034051e-09,-0.0016390759392488,0.0016390751022088,-0.00179702613157,0.001797027198035,-0.0017970280555382,0.0017970266281779,-0.0017970274722967,0.0017970272384119,-0.0017970293957999,0.0017970266680842,-0.0014596743390079,0.0014596765659324,-0.0014596788648312,0.0014596736463514,-0.0014596755163284,0.0014596753562615,-0.0014596783067476,0.0014596742272229,-1.2087430290684e-09,-1.2079837015595e-09,-0.0009078851467074,0.0009078819216861,-3.1715282069903e-09,5.2435868069121e-10,-0.001029739562683,0.0010297352434264,-0.0010297383512078,0.0010297364666476,-0.0010297400105253,0.0010297356912075,-0.001029738787281,0.0010297369026639,-0.00089338037748887,0.0008933793069588,-0.00089338061471236,0.00089337954361669,0.60881578646039,122718,2924,0.00377720111306,0.0068052591281363,0.0037772011130619,24.778976364263,0.0001134318109141,0.0001134318109141,0.0001134318109141,2578982.9024812,0.014463723087985
30419200,0.99989907866172,0.015491148533483,0.0046878061146638,0.0061155363041529,0.0046878061146664,-0.00091813501022544,0.00091813155499711,-1.3165657469305e-09,-1.3158200178533e-09,-2.4027315326495e-09,-5.0310835612036e-10,-0.0010314583202696,0.0010314544363973,-0.0010314587714436,0.0010314548874958,-0.0010314577352363,0.0010314550700377,-0.001031458167754,0.0010314555024667,-0.00090304962814871,0.00090304773681809,-0.00090304939179906,0.00090304750094928,5.2749778615766e-10,-1.4505439170261e-09,1.4205387998089e-09,-2.3127189563763e-09,-0.0016350280846486,0.0016350271888282,-0.0017968547522306,0.001796855726604,-0.0017968566535812,0.0017968551859716,-0.0017968560889266,0.0017968557783985,-0.0017968579898053,0.0017968552372889,-0.0014531580871133,0.0014531601862069,-0.0014531625608311,0.0014531573684723,-0.0014531592288468,0.0014531590114299,-0.0014531620206888,0.001453157931893,-1.2185897752571e-09,-1.2178434002789e-09,-0.0009181349117244,0.00091813165349912,-3.1454883471078e-09,4.7169917754535e-10,-0.0010314585289952,0.0010314542490011,-0.0010314573438632,0.0010314554458967,-0.0010314589737815,0.0010314546937081,-0.0010314577769661,0.001031455878924,-0.00090304900514294,0.00090304788681689,-0.00090304923643726,0.00090304811760276,0.51512748248588,122718,2924,0.0038196553194296,0.0067886703879012,0.0038196553194316,26.129657430451,0.00012423725944361,0.00012423725944361,0.00012423725944361,2715082.2066169,0.014532987475543
31419200,0.99992883847248,0.015491623417958,0.0046879460367797,0.0061157313443959,0.0046879460367823,-0.00092735356644251,0.00092734909566584,-1.7083568997848e-09,-1.7076134493293e-09,-2.7248762419049e-09,-9.6814030286066e-10,-0.0010386881297847,0.0010386834040398,-0.0010386886569372,0.0010386839311131,-0.0010386875930525,0.0010386839890552,-0.0010386881001644,0.0010386844960749,-0.00091201962039621,0.00091201685478551,-0.00091201939309717,0.00091201662796481,4.8387403633328e-10,-1.3624011405509e-09,1.3464749652317e-09,-2.1963106270415e-09,-0.0016368285546201,0.0016368277012863,-0.0017983161574401,0.0017983170577521,-0.0017983180806325,0.0017983166741206,-0.0017983175345383,0.0017983172466553,-0.0017983194572714,0.0017983168625591,-0.0014559257714329,0.0014559277730122,-0.0014559301034911,0.0014559251839307,-0.001455926874886,0.0014559266379405,-0.0014559295808113,0.0014559257289543,-1.6127989539961e-09,-1.6120548517573e-09,-0.00092735347040333,0.00092734919170604,-3.4427006338882e-09,-2.468282924787e-11,-0.0010386883305166,0.001038683223538,-0.0010386872140362,0.001038684353489,-0.0010386888515354,0.001038683744474,-0.0010386877216468,0.001038684861021,-0.00091201901842948,0.00091201700202671,-0.000912019240942,0.00091201722403366,0.66479676253864,122718,2924,0.0038578811018131,0.0067961576009431,0.0038578811018152,28.437126403738,0.0001426970112299,0.0001426970112299,0.0001426970112299,2756788.8589635,0.014618143332775
32419200,0.99995058211089,0.015492032252405,0.0046880665075702,0.0061158992372625,0.0046880665075728,-0.00092313799747859,0.00092313503805142,-1.1225902477598e-09,-1.1218348102969e-09,-2.176147719385e-09,-3.3666449036621e-10,-0.0010414049384939,0.0010414014713717,-0.0010414053607037,0.0010414018935178,-0.001041404370947,0.001041402084894,-0.0010414047757651,0.0010414024896358,-0.00090837301842215,0.00090837151242965,-0.00090837277224417,0.0009083712667774,5.3001630007173e-10,-1.3849701674356e-09,1.3696975676207e-09,-2.1955076754535e-09,-0.0016438400364307,0.001643839207073,-0.001801983393335,0.0018019843633861,-0.0018019852065423,0.0018019838387173,-0.0018019846741798,0.0018019843953984,-0.0018019864869318,0.0018019838702691,-0.0014651011614235,0.0014651031805777,-0.0014651054334482,0.0014651004935143,-0.0014651022351784,0.0014651020774794,-0.0014651049253307,0.0014651010223587,-1.0408238175027e-09,-1.0400676840432e-09,-0.00092313791513235,0.00092313512039875,-2.8864596491097e-09,5.6936004471719e-10,-0.0010414051451139,0.001041401284808,-0.0010414040119935,0.0010414024289888,-0.0010414055615634,0.0010414017011908,-0.0010414044173865,0.0010414028343191,-0.00090837241866412,0.0009083716195453,-0.00090837266028635,0.00090837186061516,0.7835582016357,122718,2924,0.0038404583198925,0.006825042128249,0.0038404583198948,29.294922768927,0.00014955938215142,0.00014955938215142,0.00014955938215142,2638076.4045267,0.014612131803687
33419200,0.99996569588476,0.015492326271973,0.004688153466791,0.0061160193383888,0.0046881534667936,-0.00091722440239329,0.00091722227546746,-8.1087087986299e-10,-8.1011079691572e-10,-1.9270474468321e-09,3.78068013517e-11,-0.0010388180885058,0.0010388152965391,-0.0010388184811063,0.0010388156890827,-0.001038817479957,0.0010388159520062,-0.0010388178555121,0.0010388163274903,-0.00090294128916638,0.0009029405234749,-0.00090294103151139,0.00090294026636068,5.7846594790943e-10,-1.4536429432941e-09,1.4138137422548e-09,-2.2580884958876e-09,-0.0016470048378255,0.0016470039898431,-0.0018047606848655,0.0018047617130688,-0.0018047624990453,0.0018047611162235,-0.0018047619697591,0.0018047616695119,-0.0018047637834795,0.001804761072205,-0.0014682428154128,0.001468244880957,-0.0014682471620852,0.0014682420602913,-0.0014682438826824,0.001468243784649,-0.001468246658278,0.0014682425845718,-7.3332086606562e-10,-7.3255941610681e-10,-0.00091722432423924,0.00091722235362303,-2.6360386785925e-09,9.3377052918843e-10,-0.0010388182979931,0.0010388151077356,-0.0010388171262709,0.001038816290094,-0.0010388186848509,0.0010388154945337,-0.001038817502501,0.0010388166662667,-0.00090294068387229,0.00090294061311636,-0.00090294093677556,0.0009029408654547,0.80945760226261,122718,2924,0.0038159616180329,0.006838066615032,0.003815961618036,29.3172781068,0.0001497382248544,0.0001497382248544,0.0001497382248544,2541643.67942,0.014575652021763
34419200,0.99997713296502,0.015492528110944,0.0046882131706506,0.0061161017696404,0.0046882131706532,-0.00091827614539848,0.00091827187722711,-1.6304646840812e-09,-1.6297056986335e-09,-2.679372690294e-09,-8.518580154106e-10,-0.0010408576216982,0.0010408530259304,-0.0010408581370793,0.0010408535412549,-0.0010408570617313,0.0010408536340181,-0.0010408575578475,0.0010408541300647,-0.000903779987005,0.00090377740849978,-0.00090377975519487,0.00090377717722945,5.3878828915231e-10,-1.3763324221363e-09,1.3646209820598e-09,-2.1726295598936e-09,-0.0016536160961224,0.0016536152845147,-0.0018120599285963,0.0018120608934538,-0.0018120618339431,0.0018120604931998,-0.0018120613106961,0.0018120610405079,-0.0018120632155705,0.0018120606397762,-0.0014734998364782,0.0014735018510217,-0.0014735041397722,0.0014734992445746,-0.001473500892065,0.0014735007664595,-0.0014735036409936,0.0014734997637682,-1.5534853527947e-09,-1.5527249864204e-09,-0.00091827606782649,0.00091827195480019,-3.3806265710612e-09,3.5212988289438e-11,-0.0010408578285256,0.0010408528391612,-0.0010408567118893,0.0010408539688548,-0.0010408583382653,0.0010408533488411,-0.0010408572086069,0.0010408544655163,-0.00090377941101101,0.00090377752062417,-0.00090377963825427,0.00090377774729848,0.73398852679868,122718,2924,0.0038203480395534,0.0068654154732259,0.0038203480395557,31.481163535393,0.00016704930828315,0.00016704930828315,0.00016704930828315,2522677.7844111,0.014612303189317
35419200,0.99998610272855,0.015492668199981,0.0046882545653642,0.0061161590692498,0.0046882545653669,-0.00092857369590795,0.00092856692038954,-2.5989466421736e-09,-2.5981925601173e-09,-3.4397314810166e-09,-2.0460244380049e-09,-0.0010482141893587,0.0010482075701237,-0.0010482148834946,0.0010482082641975,-0.0010482137746035,0.0010482080314494,-0.0010482144463964,0.0010482087031672,-0.00091371763392959,0.00091371286978704,-0.00091371742099993,0.00091371265738074,3.9520791749293e-10,-1.1107927315151e-09,1.1869942130239e-09,-1.8786707172521e-09,-0.0016603621532868,0.0016603614584999,-0.0018206062025326,0.001820606969341,-0.0018206081566524,0.0018206069524875,-0.0018206076543431,0.0018206074784781,-0.0018206096079866,0.0018206074611428,-0.0014789697043262,0.0014789715165213,-0.001478973666858,0.0014789694859742,-0.0014789707183125,0.001478970474025,-0.0014789731850068,0.0014789699879518,-2.5218220257005e-09,-2.5210665752349e-09,-0.00092857361825714,0.00092856699804143,-4.1119865141346e-09,-1.1882604318528e-09,-0.0010482143840391,0.001048207392767,-0.0010482134367374,0.0010482083570041,-0.0010482150728788,0.0010482080815416,-0.0010482141088264,0.001048209029032,-0.00091371708695033,0.00091371299108825,-0.00091371729597464,0.00091371319956039,0.64952121200817,122718,2924,0.003863056131805,0.0068933895352789,0.0038630561318072,35.927315349758,0.00020261852279807,0.00020261852279807,0.00020261852279807,2543169.0502968,0.014727340060716
36419200,0.99999184588708,0.015492762309654,0.0046882824575429,0.0061161973945652,0.0046882824575456,-0.00093427970691056,0.00093427595364776,-1.4373532350199e-09,-1.436603060964e-09,-2.3176733976594e-09,-8.3733464567782e-10,-0.001051392298641,0.0010513882698185,-0.0010513927689035,0.001051388740014,-0.001051391847578,0.0010513887628448,-0.0010513923003338,0.0010513892155206,-0.00091917044405182,0.00091916816430087,-0.00091917020302869,0.00091916792378858,4.065727373349e-10,-1.1558848318353e-09,1.1665825307633e-09,-1.8914504580163e-09,-0.0016612968998431,0.0016612961719262,-0.0018225038105861,0.0018225045927163,-0.0018225055182103,0.0018225043020938,-0.0018225050363929,0.0018225048066465,-0.001822506743543,0.0018225045155444,-0.0014794723196867,0.0014794740611969,-0.0014794761412724,0.0014794719168981,-0.0014794732921445,0.0014794730613189,-0.0014794756799978,0.0014794723975633,-1.3615174329741e-09,-1.360765899977e-09,-0.0009342796306182,0.00093427602994118,-2.9595047190741e-09,-1.3734845521111e-11,-0.0010513924838241,0.0010513881019421,-0.0010513915216195,0.0010513890763638,-0.0010513929488885,0.0010513885669365,-0.0010513919747184,0.0010513895293966,-0.00091916988101448,0.00091916824537286,-0.00091917011802176,0.00091916848184074,0.6811981079479,122718,2924,0.003886715261984,0.0068973059606827,0.0038867152619862,37.479676221832,0.00021503740977466,0.00021503740977466,0.00021503740977466,2579166.6143654,0.014779318574285
37419200,0.99999523785367,0.015492815711475,0.004688298239025,0.006116219233422,0.0046882982390276,-0.00093317955320335,0.00093317728161738,-8.6247916852623e-10,-8.6172590544317e-10,-1.8527755158217e-09,-1.4216507663097e-10,-0.0010521627809833,0.0010521599559594,-0.0010521631470273,0.0010521603219404,-0.0010521622523372,0.0010521605269665,-0.0010521626028497,0.0010521608774029,-0.00091819189403676,0.00091819089925436,-0.00091819164310104,0.00091819064884371,4.809613572548e-10,-1.2977493381779e-09,1.2272495886616e-09,-2.0167457415667e-09,-0.0016631217049431,0.001663120912161,-0.0018233580826633,0.0018233589470871,-0.0018233597339119,0.0018233584631,-0.0018233592610684,0.0018233589576816,-0.0018233609118464,0.0018233584732185,-0.0014820014546372,0.0014820032370113,-0.0014820053893273,0.0014820008465597,-0.0014820024081397,0.0014820022571855,-0.0014820049391834,0.0014820013153232,-7.9097627190902e-10,-7.9022165175626e-10,-0.00093317948124547,0.00093317735357631,-2.4836088687186e-09,6.6065945241936e-10,-0.0010521629661717,0.001052159789296,-0.0010521619345013,0.0010521608309531,-0.0010521633270205,0.0010521601500787,-0.0010521622855455,0.001052161181935,-0.00091819133042564,0.00091819096086953,-0.00091819157700769,0.00091819120689759,0.65495763090949,122718,2924,0.003882170852835,0.00690482040232,0.0038821708528372,37.680298231391,0.00021664238585113,0.00021664238585113,0.00021664238585113,2546517.2662836,0.01477773185649
38419200,0.99999718754572,0.015492849909349,0.0046883083976633,0.0061162331140195,0.0046883083976659,-0.00093230566470605,0.00093230415230748,-5.6662331237396e-10,-5.6587042952618e-10,-1.688554185757e-09,2.9179716688508e-10,-0.0010508856267402,0.0010508833789268,-0.0010508859390984,0.001050883691221,-0.0010508850099923,0.0010508840405352,-0.001050885307466,0.0010508843379318,-0.00091732103605111,0.00091732075272602,-0.00091732078050919,0.00091732049770531,5.6381264629303e-10,-1.4768088125633e-09,1.3145977595879e-09,-2.1965108705712e-09,-0.0016619841888664,0.0016619833033308,-0.001822521467267,0.001822522420184,-0.0018225231449469,0.0018225217802704,-0.0018225226700466,0.0018225222770048,-0.0018225243472541,0.0018225216366134,-0.0014805892773221,0.0014805911403399,-0.0014805934408693,0.0014805884568394,-0.0014805902349616,0.0014805901563059,-0.0014805929912736,0.0014805889250774,-4.9421177118434e-10,-4.9345753419635e-10,-0.00093230559185343,0.00093230422516115,-2.3195999799305e-09,1.0967818571691e-09,-0.0010508858130173,0.001050883213018,-0.0010508846893564,0.0010508843454852,-0.0010508861199546,0.0010508835198883,-0.0010508849875806,0.0010508846436464,-0.0009173204661963,0.00091732081115071,-0.00091732071682398,0.00091732106122836,0.72891346290552,122718,2924,0.0038785428056408,0.0069001207264653,0.003878542805643,37.196191116505,0.00021276952893204,0.00021276952893204,0.00021276952893204,2553503.46012,0.014765596793177
38880000,0.99999786837947,0.015492862119746,0.0046883120237641,0.0061162380722151,0.0046883120237667,-0.00092944940279376,0.00092944745456083,-7.3498152555052e-10,-7.3423415534397e-10,-1.8615582819242e-09,1.3441354908187e-10,-0.0010501316513044,0.0010501289991656,-0.0010501319804872,0.0010501293281943,-0.0010501310304334,0.0010501296659824,-0.0010501313442975,0.0010501299799859,-0.00091467479467025,0.00091467413805862,-0.00091467455307269,0.00091467389723619,5.7943603662682e-10,-1.4826886427621e-09,1.3317772467075e-09,-2.2031267732835e-09,-0.0016638036897095,0.0016638028143464,-0.0018238921690102,0.0018238931446857,-0.0018238938682918,0.0018238925133628,-0.0018238933931633,0.0018238930112303,-0.0018238950925353,0.0018238923789958,-0.0014826686068099,0.0014826704970644,-0.0014826728060515,0.0014826678013728,-0.0014826695654702,0.0014826695105174,-0.0014826723563286,0.001482668271072,-6.6683586084277e-10,-6.6606056557163e-10,-0.00092944933430859,0.0009294475239208,-2.4980511051652e-09,9.3689182400965e-10,-0.0010501318429487,0.0010501288294646,-0.0010501307131555,0.0010501299681254,-0.0010501321662816,0.0010501291531257,-0.0010501310276097,0.0010501302819382,-0.00091467424201759,0.00091467420647181,-0.00091467447950842,0.0009146744433263,0.74537476942469,122718,2924,0.0038667145180688,0.0069076048600308,0.0038667145198795,37.193654193675,0.0002127492335494,0.0002127492335494,0.0002127492335494,2497575.1067297,0.014749197555064
