time,ASR_ext,ASR_strain,ASR_strain_xx,ASR_strain_yy,ASR_strain_zz,disp_x_101,disp_x_102,disp_x_103,disp_x_104,disp_x_105,disp_x_106,disp_x_p1_neg,disp_x_p1_pos,disp_x_p2_neg,disp_x_p2_pos,disp_x_p3_neg,disp_x_p3_pos,disp_x_p4_neg,disp_x_p4_pos,disp_x_p5_neg,disp_x_p5_pos,disp_x_p6_neg,disp_x_p6_pos,disp_y_101,disp_y_102,disp_y_103,disp_y_104,disp_y_105,disp_y_106,disp_y_p1_neg,disp_y_p1_pos,disp_y_p2_neg,disp_y_p2_pos,disp_y_p3_neg,disp_y_p3_pos,disp_y_p4_neg,disp_y_p4_pos,disp_y_p5_neg,disp_y_p5_pos,disp_y_p6_neg,disp_y_p6_pos,disp_y_p7_neg,disp_y_p7_pos,disp_y_p8_neg,disp_y_p8_pos,disp_z_101,disp_z_102,disp_z_103,disp_z_104,disp_z_105,disp_z_106,disp_z_p1_neg,disp_z_p1_pos,disp_z_p2_neg,disp_z_p2_pos,disp_z_p3_neg,disp_z_p3_pos,disp_z_p4_neg,disp_z_p4_pos,disp_z_p5_neg,disp_z_p5_pos,disp_z_p6_neg,disp_z_p6_pos,humidity,ndof,nelem,strain_xx,strain_yy,strain_zz,temp,thermal_strain_xx,thermal_strain_yy,thermal_strain_zz,vonmises,vstrain
2419200,0,0,0,0,0,0,0,0,0,0,0,0,0,0,0,0,0,0,0,0,0,0,0,0,0,0,0,0,0,0,0,0,0,0,0,0,0,0,0,0,0,0,0,0,0,0,0,0,0,0,0,0,0,0,0,0,0,0,0,0,0,0,0,0,0,0,0,0,0,0,0,0,0,0,0
3419200,0.15846859683627,0.0027326333794522,0.00091087779315072,0.00091087779315072,0.00091087779315072,-0.00024758988889292,0.00024909878172546,2.5068801572123e-06,-9.3420256266572e-07,-1.3453144161776e-06,2.6938871521169e-06,-0.00025188829937148,0.00025342047283119,-0.00025288376924915,0.00025210454038578,-0.00025062805303551,0.00025457952614986,-0.00025158870723102,0.0002532538932707,-0.000245892244151,0.00025209947933112,-0.00024827894529404,0.0002487978212131,2.7891463712713e-06,-1.2200686797201e-06,2.6822920451085e-06,-9.6746032344361e-07,-0.00026485503541574,0.00026645112123645,-0.00026545996915225,0.00026948182759602,-0.00026698954890646,0.00026858658288389,-0.00026668024375486,0.00026826934115586,-0.00026817115603574,0.00026714918883167,-0.00025999974793442,0.00026399961483831,-0.00026397540255853,0.00026094588866509,-0.00026015851722772,0.00026445109715883,-0.00026430809453248,0.00026060759802886,-1.63662489483e-06,1.8070545111264e-06,-0.0002482932830865,0.00024844546151017,-1.8744654336951e-06,1.7159071742667e-06,-0.00025367882818942,0.00025161064712348,-0.00025239301455702,0.00025270582897313,-0.00025260860536271,0.00025286101672027,-0.00025115860322739,0.00025399116310883,-0.00024576949902748,0.00025050030142369,-0.00024918949013681,0.00024789657892581,0.78396790109726,131688,2924,0.0010342325629141,0.0011062726747164,0.001034336766299,31.785376122037,0.0001694830089763,0.0001694830089763,0.0001694830089763,1347519.7102662,0.0031798885782733
4419200,0.34969940832642,0.005930683930562,0.0019157668329424,0.0020988112205597,0.0019161058770599,-0.00047775837229886,0.00048026656439828,4.4109643296881e-06,-1.7716722103617e-06,-1.1450455345523e-06,3.384255643076e-06,-0.00049387015943804,0.00049727283470485,-0.00049551607043864,0.00049483953304364,-0.00049245988945596,0.00049837607372307,-0.00049406427988994,0.00049593266596589,-0.00047595062519196,0.0004860676800592,-0.00048036301547916,0.00047986346549611,4.0439454823381e-06,-4.8609767124907e-07,5.1554709089377e-06,-1.2415075796215e-06,-0.0005608573526391,0.00056454119037669,-0.00057236494153797,0.00057942385471513,-0.00057507894397843,0.00057793679889647,-0.00057366067590455,0.00057819100836013,-0.00057632754391756,0.00057619598809977,-0.00053876475657977,0.00054766100346943,-0.00054590448994438,0.00054204811765749,-0.00054089629653899,0.00054685384546385,-0.00054560780876608,0.00054235378458455,-2.6536491221238e-06,3.5037275479191e-06,-0.00047869707718914,0.00047947445976183,-2.9579136335811e-06,3.2153528854418e-06,-0.00049711326864911,0.00049390486682285,-0.00049489456894157,0.00049573462549601,-0.00049522434232382,0.00049618094817053,-0.00049260267890904,0.00049808076935916,-0.00047502689523057,0.00048412667957891,-0.00048126900896069,0.00047907384968811,0.77882048901949,131688,2924,0.0019939128513083,0.0023418110760612,0.0019942176616322,33.598604762631,0.00018398883810105,0.00018398883810105,0.00018398883810105,2418947.4773526,0.0063500320875812
5419200,0.5499894771767,0.0092007484314318,0.0028968002150967,0.0034068785742788,0.0028970696420563,-0.00069876610476559,0.00069909674482356,3.913716253227e-06,-3.5143142867135e-06,-3.796385734251e-07,5.5126615256213e-07,-0.00072967529752893,0.00073243004290431,-0.00073191480675193,0.00072971263261721,-0.00072941160039397,0.0007323822625689,-0.00073162895499232,0.00072966351633001,-0.00069597033855657,0.00070399958087785,-0.00070255601615224,0.00069672015575823,2.5079919478999e-06,1.4991351453251e-06,5.3682248405127e-06,-1.0944136472698e-06,-0.00089256143488929,0.00089666486352744,-0.00093061075838977,0.00093705446445263,-0.00093323708120437,0.00093536198168324,-0.00093079142575384,0.00093687321943837,-0.00093335259655224,0.00093478546844239,-0.00083960391890016,0.00085015688322074,-0.00084644021009588,0.00084395963469971,-0.00084376979693526,0.00084672219221587,-0.0008448981328968,0.00084545882626785,-3.4050265174636e-06,3.9948141168984e-06,-0.00069866129707164,0.00069931550179932,-2.8711879350204e-06,3.3273167264895e-06,-0.00073288621643901,0.00072915346807196,-0.00073070362458889,0.0007309898728349,-0.00073057869103802,0.00073171383393305,-0.00072808666846604,0.00073368568412656,-0.00069432894008241,0.00070433168250605,-0.00070172119497397,0.00069747713557162,0.77319620071226,131688,2924,0.0029080853533292,0.0037205289819182,0.0029083221430712,36.266592203806,0.00020533273763044,0.00020533273763044,0.00020533273763044,3256182.4403461,0.0095826068593547
6419200,0.70653114929463,0.011577450970946,0.0035726758111188,0.00443186803771,0.0035729071221168,-0.00083617490105691,0.000836731367158,4.8696350214191e-06,-4.2230966556388e-06,-4.071985399256e-07,7.6198755470168e-07,-0.00088705260342306,0.00089052466442958,-0.0008898271989757,0.0008872455479904,-0.00088672169822098,0.00089056223281755,-0.00088948152492045,0.00088728668105533,-0.00082699795591726,0.00083693653673815,-0.00083501737280106,0.00082805272535581,2.7195826058301e-06,1.4622408753228e-06,6.7415155866446e-06,-2.2967530742398e-06,-0.00115473423748,0.0011590056040446,-0.0012237648933491,0.0012313165407901,-0.0012272545529765,0.0012287809492614,-0.0012240923678422,0.0012310834218401,-0.001227513878496,0.0012281422157365,-0.0010623652405874,0.0010755405247948,-0.0010717299843143,0.0010668628807811,-0.0010680835161553,0.0010705933062381,-0.0010695255279793,0.0010691419122251,-4.2000410657997e-06,4.871237284913e-06,-0.00083615048929166,0.00083684686657473,-4.1282149962156e-06,4.6129758610227e-06,-0.00089129563345822,0.00088619558438119,-0.00088827906770067,0.00088888924830333,-0.00088841687428205,0.00088933554248734,-0.00088508271122104,0.00089216261035565,-0.00082484355774578,0.00083741828805345,-0.00083387015177938,0.00082912115640752,0.72914357000751,131688,2924,0.0034794398964481,0.0048085045460316,0.0034796292322932,36.738372753042,0.00020910698202434,0.00020910698202434,0.00020910698202434,3655904.7531311,0.011837208969622
7419200,0.83199843499543,0.013412443826672,0.0040777546687585,0.0052567410299484,0.0040779481279648,-0.00092967382473295,0.00093034428422284,5.9876281400075e-06,-5.2263467162806e-06,-8.2925696464927e-07,1.3218132530443e-06,-0.0010007155060074,0.0010046673956578,-0.0010042471934924,0.0010007273115608,-0.0010000875843458,0.0010050522140619,-0.001003580361495,0.001001107818465,-0.00091398045991461,0.00092646079958919,-0.00092414650735864,0.00091550157840265,3.2025153981315e-06,9.6829998527849e-07,8.1147424077832e-06,-3.6742833553035e-06,-0.0013783784005695,0.0013826481957437,-0.0014820829160527,0.0014908566762661,-0.0014863803628216,0.0014873294174365,-0.001482712901779,0.0014902758142635,-0.001486971768552,0.0014863938661425,-0.0012442935515093,0.0012598272986011,-0.001256263845962,0.0012483796980723,-0.0012510511147619,0.0012536391239581,-0.0012534790461117,0.0012512272720336,-4.9325696436714e-06,6.2588763098463e-06,-0.00092935652310198,0.00093072746921089,-5.0869133401276e-06,6.358868359909e-06,-0.0010056994649116,0.00099963131390775,-0.0010017776813998,0.0010032365318917,-0.0010021230363639,0.0010034707024421,-0.00099788597642953,0.0010071958557071,-0.00091131976628611,0.0009275569187386,-0.00092244542505824,0.00091715525270065,0.71234622037609,131688,2924,0.0038680896229603,0.0057353064209184,0.003868226777073,40.760780696215,0.00024128624556972,0.00024128624556972,0.00024128624556972,3807831.1546942,0.013563004409545
8419200,0.90773667029522,0.014494891948564,0.004372514545566,0.0057496850708194,0.0043726923321787,-0.0009658378639438,0.00096657367505158,5.9692921409791e-06,-5.1431198082679e-06,-1.1158920245487e-06,1.6953520959632e-06,-0.0010532771548185,0.0010570376027074,-0.0010567869131225,0.0010531369867077,-0.0010524347629511,0.0010576438784415,-0.0010559025459215,0.0010537386698191,-0.00094674029685482,0.00095938906042542,-0.00095683737183784,0.00094855806004848,3.2509258200346e-06,3.5028352781505e-07,7.6567152772904e-06,-3.7848583172853e-06,-0.0015174305531811,0.0015211233166998,-0.0016465887286062,0.0016548795101756,-0.0016507828254575,0.0016514670545319,-0.0016474271542899,0.0016540780177622,-0.0016515853286739,0.0016503208068158,-0.0013538885965079,0.0013683195964076,-0.0013655077637954,0.0013571623697925,-0.0013599997133453,0.0013628034673547,-0.0013630699572183,0.0013597056830193,-4.9419975670401e-06,6.1486370606435e-06,-0.00096560957463723,0.00096686200335891,-4.9551525160783e-06,6.1372537509797e-06,-0.0010581577251455,0.0010521064668875,-0.0010543631622504,0.0010556040689796,-0.0010546101565316,0.0010559137373626,-0.0010505060629686,0.0010595209195658,-0.00094435370035229,0.00096022274459654,-0.00095537180521209,0.00094992098003343,0.69848786914325,131688,2924,0.0040185906310532,0.0063098635318246,0.00401871567461,41.433084669331,0.00024666467735465,0.00024666467735465,0.00024666467735465,3688960.6255139,0.014450908025905
9419200,0.9496605712195,0.015079997732236,0.0045323145379826,0.006015196275974,0.0045324869182798,-0.00097360878518259,0.0009743402792248,5.9212281720633e-06,-5.0998295779847e-06,-1.1288370045277e-06,1.710824648649e-06,-0.0010724668265175,0.0010761796137024,-0.0010759473506763,0.0010723111438434,-0.0010716115572306,0.0010767933402741,-0.0010750567464213,0.0010729261319266,-0.00095231866077208,0.00096488235360908,-0.00096233383784742,0.0009541432140816,3.1834624728832e-06,2.5307700824124e-07,8.0827391121016e-06,-4.3711579883627e-06,-0.0015964565679819,0.001599992259499,-0.0017420062532843,0.0017504821715585,-0.0017465205583067,0.001746732682614,-0.0017428522545237,0.0017496769929409,-0.0017473295458851,0.0017455775373744,-0.0014128817382761,0.0014281210772834,-0.0014254615398407,0.0014159638297545,-0.0014196253003742,0.0014219443730381,-0.0014227088382963,0.0014188244567851,-4.8551719173891e-06,6.144344172929e-06,-0.0009733336761306,0.00097466832706436,-5.3939026619922e-06,6.6926533334408e-06,-0.0010774333988386,0.0010711555049182,-0.0010733125662162,0.0010749788322255,-0.0010739116295195,0.0010749235295677,-0.0010694838917471,0.0010788655246238,-0.00094973622459019,0.0009659386062167,-0.00096066904915535,0.00095571801207656,0.67994985033075,131688,2924,0.0040510567128212,0.0066365607479788,0.0040511671171163,41.145479029774,0.00024436383223819,0.00024436383223819,0.00024436383223819,3509878.3510679,0.01484832512947
10419200,0.97063085766813,0.015380168034175,0.00461563518507,0.0061487279892866,0.0046158048598186,-0.00096824456022353,0.0009687006099868,5.7748313885545e-06,-5.2255475102586e-06,-5.607169446667e-07,8.4223873177601e-07,-0.0010727198038008,0.0010766234278419,-0.0010761819635174,0.0010727519996004,-0.0010723151670977,0.0010767568955008,-0.0010757583663709,0.0010729017982444,-0.00094630441431413,0.00095810031742095,-0.00095631624113229,0.00094739827929644,2.7473442072075e-06,1.251669545393e-06,6.1050199431012e-06,-1.8507924527553e-06,-0.0016317728178632,0.0016358571742129,-0.0017878205881306,0.0017949119519696,-0.0017909018535452,0.0017926736029416,-0.0017882167083489,0.0017945800525806,-0.0017912542717894,0.0017919892120679,-0.0014391203082153,0.0014509707292205,-0.001447341480537,0.0014432640190072,-0.001443881494775,0.0014468320162534,-0.0014455669542732,0.0014451536089534,-5.257325536456e-06,5.7211315060363e-06,-0.00096824306722802,0.00096874841947099,-3.6229683091051e-06,4.0126404294098e-06,-0.0010774222800452,0.0010718302721117,-0.0010747848466058,0.0010741741532767,-0.0010739021281598,0.0010755836031527,-0.0010709641062132,0.0010780493765482,-0.00094452381540483,0.00095838364325383,-0.00095544203063554,0.00094819147635169,0.69329668201207,131688,2924,0.0040283677875594,0.0067837894959319,0.004028464303641,38.100583853089,0.00022000467082471,0.00022000467082471,0.00022000467082471,3355492.4795807,0.014951706762258
11419200,0.9827391714538,0.015550483494587,0.0046633203634744,0.0062236747439031,0.0046634883872097,-0.00096425430375575,0.00096469786782614,5.7401905224973e-06,-5.2020864586036e-06,-5.4693317673528e-07,8.1394660823328e-07,-0.0010744107414539,0.001078296988525,-0.0010778552266191,0.0010744465565238,-0.0010740202904355,0.0010784164359381,-0.0010774459008067,0.0010745821209562,-0.00094171003626469,0.00095342394402439,-0.00095166852783249,0.00094277966454941,2.7262803842966e-06,1.2716898926936e-06,6.1202164972723e-06,-1.8697905767572e-06,-0.0016589907571206,0.0016630721519414,-0.0018196388077838,0.0018267256578889,-0.0018227311439254,0.001824474080646,-0.0018200220413903,0.0018264070440435,-0.0018230726968971,0.0018238053705532,-0.0014601831971524,0.001472075856825,-0.0014684372041958,0.0014643387588179,-0.0014649882945882,0.0014678874999985,-0.0014666383737161,0.0014662511417999,-5.2431452321775e-06,5.6773413629797e-06,-0.00096425956225806,0.00096473630999147,-3.651998720356e-06,4.0141819156576e-06,-0.0010791156186559,0.0010735027273512,-0.0010764664398331,0.0010758583812913,-0.0010756137238473,0.00107723552757,-0.0010726650237543,0.0010797129082804,-0.00093992476618682,0.00095371096228006,-0.00095078759617866,0.00094357711222959,0.67906583919533,131688,2924,0.0040119014783691,0.0068963303958609,0.0040119925965089,37.628197151847,0.00021622557721477,0.00021622557721477,0.00021622557721477,3216413.0596204,0.015032533364768
12419200,0.98968354048743,0.015650673206438,0.0046916779641825,0.0062671501402227,0.0046918451020333,-0.00095940293774443,0.00095980956997416,5.6896449884032e-06,-5.2005562222638e-06,-5.461759986204e-07,7.9163339677791e-07,-0.0010720674436804,0.0010758826771523,-0.0010754744074296,0.0010720513208412,-0.0010716595827233,0.0010760106907347,-0.0010750820225922,0.0010722121844095,-0.00093680498726973,0.00094841339879686,-0.00094673757131032,0.00093783211774262,2.7097033945332e-06,1.2747161810195e-06,6.0937079177034e-06,-1.8775021543787e-06,-0.0016721333273457,0.001676193049079,-0.0018364908047813,0.001843568585009,-0.0018395760000744,0.001841331371909,-0.0018368887153122,0.0018432441264292,-0.0018399209926701,0.0018406161388331,-0.0014692470779214,0.0014810930588188,-0.0014774486417983,0.0014733174885587,-0.0014740592695989,0.0014769283488998,-0.0014756472185262,0.0014752885867152,-5.1999344800469e-06,5.6668117549705e-06,-0.00095937429877889,0.0009598711663683,-3.632166698802e-06,4.0181762589332e-06,-0.0010766926461319,0.0010711291435553,-0.0010740679189355,0.0010734804444425,-0.001073215117702,0.0010748314376524,-0.0010702967607549,0.0010773369405102,-0.00093499417413387,0.00094875313107188,-0.00094578406492228,0.0009386267678097,0.69355173648688,131688,2924,0.0039917568659998,0.0069506302312287,0.0039918256829409,36.804267166658,0.00020963413733327,0.00020963413733327,0.00020963413733327,3136088.4050798,0.015046739276102
13419200,0.9935619262017,0.015705235522745,0.0047071645093006,0.0062907399750989,0.0047073310383457,-0.0009527752964412,0.00095321103637764,5.6841318679756e-06,-5.155290172365e-06,-5.3021781489426e-07,7.9179035006778e-07,-0.0010681388867509,0.0010719931881845,-0.0010715509134017,0.0010681793450874,-0.00106775891636,0.0010721006160373,-0.0010711524351914,0.0010683050715342,-0.00092972349181441,0.00094130919886806,-0.0009395826834563,0.00093076971685381,2.7075987640676e-06,1.2919355288283e-06,6.09348883209e-06,-1.8441063230325e-06,-0.0016795271791404,0.0016836088547089,-0.0018455144963686,0.0018525721839956,-0.0018485893335623,0.0018503380684702,-0.0018458878397491,0.0018522665914501,-0.0018489191613088,0.0018496807320159,-0.0014741116483929,0.0014859635167341,-0.0014823086283424,0.0014782740593281,-0.0014789131039027,0.0014817886788609,-0.0014805161501568,0.0014801931693401,-5.2051649916404e-06,5.6123237609618e-06,-0.0009527898062262,0.00095323788561347,-3.6404856960901e-06,3.9749508110765e-06,-0.0010728167323653,0.0010672236680144,-0.0010701842757564,0.0010695637606136,-0.0010693462941156,0.001070919808175,-0.0010664166486636,0.0010733827083811,-0.00092795143442501,0.00094159107214107,-0.00093870708855385,0.00093155536117229,0.67550368726011,131688,2924,0.0039643710502509,0.0069812244257841,0.0039644573603575,34.794598025398,0.00019355678420318,0.00019355678420318,0.00019355678420318,3044267.5646901,0.015022232629603
14419200,0.99580131382983,0.015736323306341,0.0047160135922881,0.0063041298484208,0.0047161798656326,-0.00094612488389327,0.00094654909138101,5.6539488480197e-06,-5.1347751036083e-06,-5.1604716927727e-07,7.6306932851699e-07,-0.0010617474936239,0.0010655876681782,-0.0010651403959016,0.0010617892011086,-0.0010613810374392,0.0010656812897271,-0.0010647594911113,0.0010619036735819,-0.00092298814559537,0.00093450537982038,-0.00093280356167578,0.00092401869660478,2.6977650615267e-06,1.3245696814797e-06,6.0760424687945e-06,-1.8030124441548e-06,-0.0016794477677518,0.0016835527137914,-0.0018478886857182,0.001854938068255,-0.001850944322932,0.0018527230552478,-0.0018482487310157,0.0018546461773286,-0.0018512606169362,0.0018520788632768,-0.0014715487719644,0.0014833839296566,-0.0014796921057633,0.0014757501822268,-0.0014763358743039,0.0014792131039215,-0.001477904386252,0.0014776616376698,-5.1872964010992e-06,5.5795370807355e-06,-0.00094613940488552,0.00094657342881977,-3.6189778946994e-06,3.9384629902566e-06,-0.0010664033588103,0.0010608358068334,-0.0010637937032642,0.0010631559976382,-0.0010629492952374,0.0010645136514856,-0.0010600431995382,0.0010669587699553,-0.00092122571285659,0.00093478179426542,-0.0009319393403461,0.00092479905669689,0.66543916077272,131688,2924,0.0039367693950937,0.0069809447070887,0.0039368505031602,32.643906427215,0.00017635125141772,0.00017635125141772,0.00017635125141772,2998981.4960697,0.014965909486454
15419200,0.99696744067534,0.015753435996746,0.0047209429383845,0.0063113839845958,0.0047211090737662,-0.00093467494695956,0.00093507763592974,5.6093853972774e-06,-5.1113374297574e-06,-4.703629810346e-07,6.9227347507891e-07,-0.0010502206584389,0.0010540546382377,-0.0010535900496919,0.001050279834666,-0.0010498905704957,0.0010541104182548,-0.0010532470606971,0.001050355746709,-0.00091143837081149,0.00092283060397694,-0.00092118720270941,0.0009124048020547,2.6650482907321e-06,1.4081064690362e-06,6.0218233598238e-06,-1.7010614844255e-06,-0.0016706066769506,0.0016747594950266,-0.0018402957558903,0.001847303844938,-0.0018433022551517,0.0018451406005318,-0.0018406199017858,0.0018470499223745,-0.0018435813202501,0.0018445359823319,-0.0014616208376476,0.0014733852360542,-0.001469614365035,0.0014659145867745,-0.0014663769667992,0.0014692398788858,-0.0014678328584274,0.001467808244804,-5.1669901095399e-06,5.5319257266128e-06,-0.00093469347746293,0.00093509782581963,-3.5587817941402e-06,3.8440153192637e-06,-0.0010548510170083,0.0010493281976102,-0.0010522927746909,0.0010515976755739,-0.0010514187693231,0.0010529826108435,-0.0010485650153905,0.0010553772275032,-0.00090968580478812,0.00092310029775307,-0.0009203336500591,0.00091318083837158,0.70138893902203,131688,2924,0.0038892109625383,0.0069444652269369,0.0038892917782893,27.069722678282,0.00013175778142626,0.00013175778142626,0.00013175778142626,2935138.7911407,0.014832348541839
16419200,0.99771604881818,0.015764040200506,0.0047239989572589,0.0063158762354216,0.0047241650078252,-0.00092833319427532,0.00092870809033497,5.5691719954345e-06,-5.1093630339454e-06,-4.6973591560231e-07,6.7064758823847e-07,-0.0010464349823519,0.0010502305297524,-0.0010497704163757,0.0010464615963719,-0.0010461000954753,0.0010502836621957,-0.0010494553310452,0.0010465410228617,-0.00090466620498828,0.00091597061427872,-0.0009143765998291,0.00090558121853648,2.6470292466186e-06,1.4117438282893e-06,5.9920407847827e-06,-1.6940521959381e-06,-0.0016717945584369,0.0016759300630065,-0.0018402199651267,0.001847197249909,-0.0018432155199808,0.0018450440511817,-0.0018405414069545,0.0018469447860717,-0.0018434844486747,0.0018444468565389,-0.0014634654519847,0.0014751835131019,-0.0014714214007272,0.0014677226258024,-0.0014682270336367,0.0014710558863936,-0.0014696325832329,0.0014696382630011,-5.1195217951133e-06,5.5349248739065e-06,-0.00092831505068426,0.00092875196894123,-3.5254665808287e-06,3.8418502424589e-06,-0.0010509876637719,0.0010455319098459,-0.0010484704742641,0.0010477886118223,-0.0010475750886979,0.0010491674045331,-0.0010447581007031,0.0010515594186714,-0.00090288496891128,0.00091627976313923,-0.00091347341017746,0.00090638466917153,0.67697638708632,131688,2924,0.003862866691751,0.0069492934368357,0.0038629205058253,24.418335321124,0.00011054668256899,0.00011054668256899,0.00011054668256899,2849435.6363748,0.014783772002818
17419200,0.9982187833885,0.015771358287465,0.0047261206780885,0.006318950958934,0.0047262866504424,-0.00092191909810899,0.00092228635616813,5.5537650032558e-06,-5.0900390396712e-06,-4.4101997292305e-07,6.1933177253145e-07,-0.0010394601636088,0.0010432633312583,-0.001042789496615,0.0010395114862729,-0.0010391535848455,0.0010432869483976,-0.0010424836915859,0.0010395481153659,-0.00089845744704453,0.00090971683141526,-0.00090814394459021,0.00089933799571062,2.6145327899875e-06,1.4609510935829e-06,5.9586743253477e-06,-1.6448407975448e-06,-0.0016666526593299,0.0016708013123499,-0.0018364900178675,0.0018434207648557,-0.0018394675021933,0.0018412977518091,-0.001836787725188,0.0018431973989327,-0.0018397179666425,0.0018407411183939,-0.0014571893005311,0.0014688461189635,-0.0014650743606163,0.0014615437758191,-0.0014619252532,0.0014647169526805,-0.0014632878357956,0.0014634125575747,-5.1232018207535e-06,5.4984866732142e-06,-0.00092191948247044,0.00092232219604108,-3.5063578285872e-06,3.7794780275659e-06,-0.0010440348267888,0.0010385757154385,-0.001041520913163,0.0010408163870486,-0.0010406377008249,0.0010422066787037,-0.0010378232108597,0.0010445624346389,-0.00089668889113576,0.00090999617422748,-0.00090726380408489,0.00090014181510047,0.6939400378223,131688,2924,0.0038362273501102,0.0069280573936727,0.0038363029890624,21.980202011767,9.1041616094138e-05,9.1041616094138e-05,9.1041616094138e-05,2826133.780364,0.014708170242458
18419200,0.99853110514421,0.015775830722009,0.0047274188159536,0.0063208271532717,0.0047275847527841,-0.00091281590683277,0.00091319715651725,5.5417728465281e-06,-5.0657355517442e-06,-4.1124370380024e-07,6.0924839738768e-07,-0.0010313799231388,0.0010352021464311,-0.0010347099996714,0.0010314644738151,-0.0010310943065968,0.0010352101887028,-0.0010344145019006,0.0010314934501727,-0.00088906796001148,0.00090027809885628,-0.00089870745178655,0.00088996359482271,2.6116720801855e-06,1.4969863500946e-06,5.9273335000079e-06,-1.5750989901504e-06,-0.0016605564152227,0.0016647422724097,-0.0018299744257493,0.0018368954542011,-0.0018329102135362,0.0018348064407228,-0.001830253185042,0.0018366894768847,-0.0018331434078339,0.0018342517598005,-0.0014513015856902,0.0014629277682808,-0.0014590839183345,0.0014556768535122,-0.0014560061412487,0.0014588352758461,-0.0014573217280929,0.001457545608121,-5.1314715284276e-06,5.4542455323953e-06,-0.00091284477336829,0.00091320521653624,-3.473948962224e-06,3.7104294685052e-06,-0.0010359677605368,0.0010305132915721,-0.0010334845754093,0.0010327103882157,-0.0010325722647276,0.0010341290097064,-0.0010297934792168,0.0010364514740889,-0.00088734158664458,0.00090052954679697,-0.00089787595857582,0.00089071870283335,0.68267067292572,131688,2924,0.0037984852307499,0.0069028884248585,0.0037985623387709,17.477991088761,5.5023928710089e-05,5.5023928710089e-05,5.5023928710089e-05,2756632.5053818,0.014606050978304
19419200,0.99878971322687,0.01577975668298,0.004728569988398,0.0063224507976621,0.0047287358969203,-0.00091073098119408,0.00091112441491071,5.5411707761372e-06,-5.0521537928688e-06,-4.478176538586e-07,6.6024953546634e-07,-0.0010293242364046,0.0010331250974259,-0.0010326502497357,0.0010293907486137,-0.0010290114916028,0.0010331616243629,-0.0010323268591758,0.0010294506605922,-0.00088707134434363,0.00089830975239867,-0.00089670022934165,0.00088801796454967,2.6390061938174e-06,1.4365928565963e-06,5.9264062378443e-06,-1.6035560430856e-06,-0.0016614097216882,0.0016655655754807,-0.0018318975617486,0.0018388275758321,-0.0018348415010667,0.001836729789011,-0.0018322042429988,0.0018385929561031,-0.0018351045788221,0.0018361433926403,-0.0014510591003599,0.0014626597120725,-0.0014588659246581,0.0014553717410087,-0.0014557295380392,0.0014586067989295,-0.0014571337807587,0.0014572270367487,-5.1245259637007e-06,5.4468025888152e-06,-0.00091076407863312,0.00091112731058079,-3.484780540973e-06,3.7270363760461e-06,-0.0010339017012113,0.0010284460321758,-0.0010314089988623,0.0010306521357969,-0.0010305114859335,0.0010320564501167,-0.0010277231253688,0.0010343889072475,-0.00088536232023767,0.00089854059155536,-0.00089588527756924,0.0008887499084542,0.721582428991,131688,2924,0.0037898661945791,0.0069063586564905,0.0037899413789643,17.551568050536,5.5612544404289e-05,5.5612544404289e-05,5.5612544404289e-05,2742332.1134706,0.014592076720226
20419200,0.99901477332395,0.01578320997128,0.0047295842907439,0.0063238755062661,0.0047297501742704,-0.00091079046895888,0.00091120540256949,5.5372257373243e-06,-5.0264632276443e-06,-4.9754729243796e-07,7.3372779802522e-07,-0.0010319111674517,0.0010356829384125,-0.0010352270725925,0.0010319583544365,-0.0010315591818197,0.0010357600406124,-0.0010348647171481,0.0010320591576185,-0.00088683649338076,0.00089810785941031,-0.00089643744963866,0.0008878472390947,2.6705085986898e-06,1.3452809811999e-06,5.9263961278649e-06,-1.6614989761588e-06,-0.0016686188047324,0.0016727171295284,-0.0018377180373114,0.0018446499522886,-0.0018406805594375,0.0018425338392303,-0.0018380638039543,0.0018443751309075,-0.0018409831053281,0.0018419060799785,-0.0014589712397817,0.0014705313367249,-0.0014668350016496,0.0014631835418298,-0.0014636006435724,0.0014665208269037,-0.0014651247748931,0.0014650165049487,-5.1084148671613e-06,5.4333884306476e-06,-0.00091083235678178,0.00091119900982046,-3.5113069859152e-06,3.7579149535159e-06,-0.001036476956659,0.0010310159135175,-0.001033965352103,0.0010332406879554,-0.0010330967153071,0.0010346162964841,-0.0010302892665837,0.0010369684080529,-0.00088514853410972,0.00089831979743728,-0.000895642113191,0.00088855813342854,0.72910480533544,131688,2924,0.0037901914828071,0.0069360196790002,0.0037902656468257,18.597312354036,6.3978498832292e-05,6.3978498832292e-05,6.3978498832292e-05,2695503.1595682,0.014622850914579
21419200,0.99916788532024,0.015785496555875,0.0047302541420634,0.0063248224048882,0.0047304200089231,-0.00090326039598512,0.00090366542362975,5.5116999707136e-06,-5.0101305960284e-06,-4.6935476374779e-07,6.9188733020654e-07,-0.0010249396204286,0.0010287078557619,-0.0010282346862765,0.0010249978513227,-0.001024605323342,0.0010287640516951,-0.0010278986524449,0.0010250718922771,-0.00087941941063436,0.00089062407336468,-0.00088898613809984,0.00088038677039778,2.6440183510095e-06,1.3891913813166e-06,5.8873624498359e-06,-1.6107538156297e-06,-0.0016628484848129,0.0016669595096122,-0.0018320002950855,0.0018388911478015,-0.0018349371294159,0.0018368028234184,-0.0018323255230737,0.0018386361809187,-0.00183521552911,0.0018362072671709,-0.0014531538975383,0.0014646483410451,-0.0014609328681824,0.0014574162366844,-0.0014577636200543,0.0014606519062991,-0.0014592155050684,0.0014592296331567,-5.0886309649387e-06,5.4111225401949e-06,-0.00090330090904322,0.00090365896488,-3.474451769031e-06,3.7062696824251e-06,-0.0010294817918845,0.0010240568588571,-0.0010270042489832,0.0010262554170109,-0.0010261175708089,0.0010276441131379,-0.0010233426214322,0.001029966188249,-0.000877733698105,0.00089083430492195,-0.00088818844108035,0.00088110494721252,0.70951084549215,131688,2924,0.0037589211316027,0.006912157740909,0.0037589922853248,15.225615260312,3.7004922082497e-05,3.7004922082497e-05,3.7004922082497e-05,2647384.0117954,0.01453518586218
22419200,0.99929463238628,0.015787408917388,0.0047308165660319,0.0063256099326139,0.0047309824187419,-0.00090064778986558,0.0009010555481679,5.5106642696651e-06,-5.006693200274e-06,-4.8169294924242e-07,7.0970084855971e-07,-0.0010219647289885,0.0010257267605582,-0.0010252651153582,0.0010220177446388,-0.0010216252567365,0.0010257909135711,-0.0010249160502868,0.0010221060514526,-0.00087699238079646,0.00088819897355625,-0.00088654876101476,0.00087798320304896,2.659557931331e-06,1.3740855422347e-06,5.8818905027163e-06,-1.6001267550802e-06,-0.0016617302324964,0.0016658454572334,-0.0018321032260138,0.001839004720957,-0.0018350319035027,0.0018369230448881,-0.001832436792537,0.0018387425204491,-0.0018353215970881,0.0018363090321958,-0.001450923720165,0.0014624083243804,-0.0014586839575834,0.0014551691858656,-0.001455508418749,0.0014584411686958,-0.0014569936631863,0.0014569792819261,-5.0935914412583e-06,5.4018634964427e-06,-0.00090069433639443,0.00090104385260655,-3.4684432214388e-06,3.6959471726385e-06,-0.001026508774712,0.0010210808605299,-0.0010240320187723,0.0010232715179536,-0.0010231431405162,0.0010246654199122,-0.00102037141369,0.0010269830945662,-0.00087532107680176,0.0008883955456845,-0.00088577011768213,0.00087867980520373,0.71604798170764,131688,2924,0.0037480855208577,0.0069075476696249,0.0037481583469806,14.858990533535,3.4071924268276e-05,3.4071924268276e-05,3.4071924268276e-05,2638597.0289066,0.014508516976367
23419200,0.9994071853613,0.015789078147367,0.0047313072715567,0.0063262977635231,0.0047314731122871,-0.00090029900629377,0.0009007105677313,5.5052604215605e-06,-5.0004313182945e-06,-4.8653026296065e-07,7.2294679611708e-07,-0.0010224883532967,0.0010262430151857,-0.0010257846786177,0.0010225371379786,-0.0010221418794686,0.0010263135837001,-0.0010254306253231,0.001022635979885,-0.00087664676658108,0.00088784343221278,-0.00088619110475653,0.00087764564938762,2.670618064249e-06,1.3670524831393e-06,5.9103216426784e-06,-1.6248274391363e-06,-0.0016652398176161,0.0016693594758801,-0.001835709976792,0.0018426401636723,-0.0018386538705841,0.0018405421829571,-0.0018360495648022,0.0018423721745406,-0.0018389500484694,0.0018399156213547,-0.0014540903593407,0.0014656314587309,-0.0014618990560986,0.0014583208314398,-0.00145870565696,0.0014616444135402,-0.0014602010436998,0.0014601549077489,-5.0812164480242e-06,5.402492706712e-06,-0.00090034136850172,0.00090070246065802,-3.4872039765466e-06,3.7298387430893e-06,-0.001027027480213,0.0010215977778281,-0.001024535970652,0.0010238042570514,-0.0010236661300454,0.0010251763776638,-0.001020879483139,0.001027514785081,-0.00087496529215916,0.00088805623714452,-0.00088539660195936,0.00087834596271624,0.70404422384871,131688,2924,0.0037466626065238,0.0069220621005452,0.0037467342147429,15.705719502735,4.0845756021883e-05,4.0845756021883e-05,4.0845756021883e-05,2619895.3861067,0.014520358772514
24419200,0.9995134344762,0.015790680912967,0.0047317796737719,0.0063269557361028,0.0047319455030927,-0.00090198102123048,0.00090239985707593,5.5162576490507e-06,-5.0010698044232e-06,-5.127164615365e-07,7.5322590441394e-07,-0.0010242958403542,0.0010280441336484,-0.0010275966240131,0.0010243352651006,-0.001023932375395,0.0010281328894735,-0.0010272230251992,0.0010244474031632,-0.0008784556000679,0.0008896973280842,-0.00088801348956854,0.00087948214732182,2.680833270014e-06,1.3212635267489e-06,5.9412525068269e-06,-1.6901854901588e-06,-0.0016701230159944,0.0016742073588368,-0.0018416012968266,0.001848544421111,-0.0018445779030219,0.001846412590361,-0.0018419587318584,0.0018482575077732,-0.0018448923611807,0.0018457759612811,-0.0014578158901572,0.0014693922551727,-0.001465720563385,0.0014620058163773,-0.001462451890304,0.001465376990958,-0.0014640100750422,0.0014638420639131,-5.0842795743777e-06,5.4112020604732e-06,-0.00090202368289696,0.00090239207300486,-3.5317916963965e-06,3.7812819987668e-06,-0.001028849298264,0.001023389292588,-0.0010263227065923,0.0010256301919555,-0.0010254841274251,0.0010269738657996,-0.0010226618323603,0.0010293406047252,-0.00087676771743612,0.00088990852681524,-0.0008872166875922,0.00088019324906435,0.71549404749068,131688,2924,0.0037536725311482,0.0069421939020318,0.0037537454330147,17.881578703145,5.8252629625158e-05,5.8252629625158e-05,5.8252629625158e-05,2624043.6111788,0.014555005896344
25419200,0.99961030238979,0.015792215638377,0.0047322341630253,0.0063275814931573,0.0047323999821946,-0.00090369904912371,0.00090412420762138,5.5155425934202e-06,-4.996090844282e-06,-5.2768108213459e-07,7.7827936583277e-07,-0.0010271859142473,0.001030925244746,-0.0010304860956492,0.0010272182302289,-0.0010268098759937,0.0010310270461053,-0.0010300996848193,0.0010273465170395,-0.00088015157633997,0.00089140113216673,-0.00088970231360499,0.0008811980283559,2.6922669608019e-06,1.2924571404556e-06,5.9710837820314e-06,-1.7368834998515e-06,-0.0016764978038726,0.0016805663131187,-0.0018478926231328,0.0018548589589024,-0.0018508913609559,0.0018527026101496,-0.0018482618210224,0.0018545596055092,-0.0018512185810061,0.0018520475151345,-0.0014639150640778,0.0014755426542211,-0.0014718921966713,0.0014680629465593,-0.001468578582788,0.0014715035524022,-0.0014701719210391,0.0014699197067236,-5.0758136391238e-06,5.4139106807521e-06,-0.0009037387407749,0.00090411874764214,-3.5618710868757e-06,3.8269031563318e-06,-0.0010317397932675,0.0010262683983991,-0.0010291898700776,0.0010285325605388,-0.0010283762516699,0.0010298498888705,-0.0010255307295873,0.0010322432538013,-0.0008784559316704,0.00089162634045665,-0.00088889492097406,0.0008819142785212,0.7506515721163,131688,2924,0.0037608387920312,0.0069685151562704,0.0037609103642558,19.926560985447,7.4612487883573e-05,7.4612487883573e-05,7.4612487883573e-05,2610717.0692281,0.014596259120017
26419200,0.99968972627657,0.015793501786705,0.0047326154364249,0.0063281051030694,0.0047327812472104,-0.00090289141463318,0.00090331615215256,5.5059605980869e-06,-4.9901077324353e-06,-5.232245591045e-07,7.777958865757e-07,-0.0010282418637528,0.0010319761299759,-0.0010315345478371,0.0010282731682077,-0.0010278656126608,0.0010320765498905,-0.001031154091719,0.0010284038029522,-0.00087927828963412,0.00089050266199386,-0.00088881137689204,0.00088031964610923,2.6862397709487e-06,1.2914093603848e-06,5.9704827259345e-06,-1.7453583953888e-06,-0.0016805729670184,0.0016846345490046,-0.0018510831548536,0.0018580438835928,-0.0018540807101705,0.0018558849060063,-0.0018514487381028,0.0018577465291193,-0.0018544045919046,0.0018552283870621,-0.0014684272314909,0.0014800622874035,-0.0014764125795328,0.0014725530119706,-0.0014731068668548,0.0014760162303735,-0.0014746835743642,0.0014744282356889,-5.061561631614e-06,5.412132072253e-06,-0.00090292512221713,0.00090331412456489,-3.5598030396474e-06,3.836333575308e-06,-0.0010327811082392,0.0010273239334253,-0.0010302367787215,0.0010295872422845,-0.0010294219071968,0.0010308976723968,-0.0010265817656335,0.0010332960740822,-0.00087757647345827,0.00089074272087907,-0.00088799351134778,0.00088104075080573,0.7669211254121,131688,2924,0.0037575108959454,0.0069853239177562,0.0037575771677323,20.393280622158,7.8346244977263e-05,7.8346244977263e-05,7.8346244977263e-05,2573872.5649601,0.014606570257146
27419200,0.99975898566916,0.015794580527209,0.0047329341674241,0.0063285463892761,0.0047330999705087,-0.00090371211757299,0.0009041524801301,5.5129054446197e-06,-4.9756479819027e-06,-5.7741179869623e-07,8.4188600646889e-07,-0.0010304371950836,0.0010341463967946,-0.0010337285089196,0.0010304475606864,-0.0010300247230344,0.001034286298466,-0.0010333071052473,0.0010306122654859,-0.00088037766598678,0.00089166426852757,-0.00088990867741638,0.0008814804279038,2.7250916072564e-06,1.2122309265351e-06,5.9719013663919e-06,-1.7836207208442e-06,-0.0016859274793708,0.001689949943354,-0.0018562668380604,0.0018632403906748,-0.0018592824168838,0.0018610675735167,-0.0018566731535786,0.0018629029581853,-0.0018596451762489,0.0018603775380804,-0.001473629449092,0.0014852151795733,-0.0014816538745633,0.0014777001382815,-0.0014782444167191,0.0014812147792112,-0.0014799514168718,0.0014795254936145,-5.0650793050368e-06,5.4015124968542e-06,-0.00090375974599577,0.00090413827642744,-3.5869914634895e-06,3.8490638946042e-06,-0.0010349813730442,0.0010295009032378,-0.00103241519052,0.0010317814986831,-0.0010316248321066,0.001033074968119,-0.001028764152108,0.001035483815023,-0.00087870447113833,0.00089186855564401,-0.00088912532222515,0.00088218210467654,0.73788855829191,131688,2924,0.0037609717457642,0.0070073691464574,0.0037610416412214,22.249487837461,9.3195902699687e-05,9.3195902699687e-05,9.3195902699687e-05,2558075.4775772,0.01463596991737
28419200,0.99981591465126,0.015795513427163,0.0047332112902769,0.0063289250494595,0.004733377087427,-0.00090395417269389,0.00090439516269643,5.5190312492155e-06,-4.9817654044958e-06,-5.7580672107995e-07,8.4217582440826e-07,-0.0010302123388306,0.0010339248434932,-0.0010335105179633,0.0010302231397742,-0.0010298012486634,0.0010340652852698,-0.0010330851309023,0.00103039323377,-0.00088092274491106,0.00089221933346187,-0.00089046892814157,0.00088202941495383,2.7320021828911e-06,1.2194662772354e-06,5.9941539657321e-06,-1.792396819852e-06,-0.0016874762856807,0.0016915128625786,-0.0018590016283104,0.0018660058728498,-0.0018620295402249,0.0018638248830369,-0.0018594113738864,0.0018656679005473,-0.0018623982889538,0.0018631216321788,-0.0014741200996233,0.0014857509424606,-0.001482170738761,0.0014782023147252,-0.0014787522026794,0.0014817327185733,-0.0014804674008745,0.0014800391144771,-5.0731607104596e-06,5.4060518523408e-06,-0.00090400316871793,0.00090438134804457,-3.60185617143e-06,3.8648910215063e-06,-0.0010347695288878,0.0010292727655192,-0.0010321872475639,0.0010315663781595,-0.0010314104742247,0.0010328502013285,-0.0010285362083306,0.0010352741133441,-0.00087924418596799,0.00089243108957324,-0.00088967479275623,0.00088272810307545,0.77520834805066,131688,2924,0.0037619805099079,0.0070138158853296,0.0037620540697535,23.439579031657,0.00010271663225326,0.00010271663225326,0.00010271663225326,2567233.752728,0.014644551597551
29419200,0.99986217358704,0.015796185164784,0.0047334086525937,0.0063292020668184,0.0047335744453717,-0.00090465634286936,0.00090510231868755,5.5135875320319e-06,-4.9716628690835e-06,-5.9539289090169e-07,8.6768804062698e-07,-0.0010328227589713,0.001036521977277,-0.0010361138754833,0.0010328244040454,-0.0010323962955484,0.0010366761206008,-0.0010356779052825,0.0010330038427667,-0.000881483544582,0.00089278366158636,-0.00089101132957936,0.00088260550909497,2.7381793587506e-06,1.1817193805265e-06,6.0024315281313e-06,-1.8317222822435e-06,-0.0016933996996206,0.0016974053200131,-0.0018641466522253,0.0018711429793444,-0.0018671864235889,0.0018689443997541,-0.0018645663322101,0.0018707916846167,-0.001867563550336,0.0018682395069616,-0.0014802403017727,0.0014918739970491,-0.0014883408869611,0.001484273317227,-0.0014848809011928,0.0014878522423132,-0.0014866284442995,0.001486115850877,-5.059057013135e-06,5.4042415155099e-06,-0.00090470224711035,0.00090508973364267,-3.6202670591331e-06,3.8939792139076e-06,-0.0010373701675837,0.0010318731037074,-0.0010347785146528,0.0010341792149274,-0.0010340148338903,0.001035445636291,-0.0010311280660629,0.0010378804761148,-0.00087980265466005,0.00089299694853588,-0.00089021801450138,0.00088331231439247,0.68889126574722,131688,2924,0.0037649348283139,0.0070382207330717,0.0037650045222819,24.778337395782,0.00011342669916626,0.00011342669916626,0.00011342669916626,2537652.4033165,0.014675322872397
30419200,0.99989897293658,0.015796710186014,0.0047335627124161,0.006329418972038,0.0047337285015596,-0.0009056696310395,0.00090611716494414,5.5473211554607e-06,-5.0034948931817e-06,-5.9452560939701e-07,8.6828731806935e-07,-0.0010305520502614,0.0010342737205507,-0.0010338650083841,0.001030554983132,-0.0010301256059506,0.0010344289575239,-0.0010334295218454,0.0010307352066279,-0.00088277184254861,0.00089414044528309,-0.0008923643795921,0.00088389487023683,2.7431486966398e-06,1.1864522763614e-06,6.007045415028e-06,-1.8261053910053e-06,-0.0016917136378114,0.0016957281723395,-0.0018662193201587,0.0018732248933815,-0.0018692587717277,0.0018710244515213,-0.0018666391215734,0.001872871603981,-0.0018696351483357,0.0018703197071735,-0.001475405243024,0.0014870449632546,-0.0014835028207846,0.0014794513687153,-0.0014800424101003,0.0014830232165947,-0.0014817906223478,0.0014812894609371,-5.0878102980171e-06,5.4410079223624e-06,-0.00090571250888236,0.00090610719331074,-3.6159329063965e-06,3.8972125827868e-06,-0.0010351182360211,0.0010296060946457,-0.0010325270636652,0.0010319128185196,-0.0010317407720221,0.001033200611891,-0.0010288556401605,0.001035634917768,-0.00088108742518964,0.00089435450064392,-0.00089156901732795,0.00088460586719407,0.67663456767167,131688,2924,0.0037691244558099,0.0070313335444601,0.0037691932751688,26.129009144291,0.00012423207315433,0.00012423207315433,0.00012423207315433,2592481.0260345,0.014676803354262
31419200,0.99992876252791,0.015797166799373,0.004733697818976,0.0063296053753091,0.0047338636050883,-0.00090825676358424,0.00090871158312377,5.5570832525141e-06,-5.0061579000465e-06,-6.1288618438425e-07,8.9514540139282e-07,-0.001033083838192,0.0010368017685102,-0.0010364012467151,0.0010330791485613,-0.0010326430117381,0.0010369721639109,-0.0010359511597541,0.0010332744113981,-0.00088538613396044,0.0008967888303955,-0.00089499122073533,0.00088653127353815,2.757025000662e-06,1.1550955264625e-06,6.0398581318392e-06,-1.8758045900903e-06,-0.0016967917857941,0.0017007893478035,-0.0018721654014985,0.0018791957999173,-0.00187523102179,0.001876967604983,-0.0018725993647894,0.0018788273354273,-0.0018756219473388,0.0018762478343359,-0.0014794456389026,0.0014911348967819,-0.0014876229825804,0.0014834579619544,-0.001484107434279,0.0014870888007678,-0.0014858996436102,0.0014853087633334,-5.0876904109737e-06,5.4535580156381e-06,-0.00090829684825854,0.0009087042470222,-3.6494523127984e-06,3.9454476048731e-06,-0.0010376578337501,0.0010321265398761,-0.0010350396896878,0.0010344604172264,-0.0010342764076849,0.0010357251341086,-0.0010313641460546,0.0010381865085209,-0.0008836925691907,0.00089701155112483,-0.00089418619945716,0.00088725031851026,0.72615477750852,131688,2924,0.0037798896725828,0.0070523107251312,0.0037799581692575,28.436007460712,0.00014268805968569,0.00014268805968569,0.00014268805968569,2603473.4237904,0.014719934208973
32419200,0.99995052898205,0.01579751718992,0.0047338018391882,0.0063297477276781,0.004733967623054,-0.0009086862134836,0.00090914391423736,5.5448220492254e-06,-4.9921604159544e-06,-6.2678823220631e-07,9.1408485362659e-07,-0.0010363778598289,0.0010400798574042,-0.0010396877614501,0.0010363658071827,-0.0010359265996964,0.0010402597834746,-0.0010392256228231,0.0010365704240379,-0.00088543145337521,0.00089681735306573,-0.00089500949376057,0.0008865881126417,2.7640313376531e-06,1.1298975497843e-06,6.0418494680346e-06,-1.8960968894505e-06,-0.0017032817143043,0.0017072621971198,-0.0018765977771653,0.0018836269412678,-0.0018796695309944,0.0018813937626922,-0.0018770410340414,0.0018832499395032,-0.0018800710700689,0.0018806640152506,-0.0014873490881979,0.0014990361282631,-0.001495550129359,0.0014913267661317,-0.0014920093523944,0.0014949976925751,-0.0014938292076615,0.0014931810156741,-5.0778207831809e-06,5.4372720202844e-06,-0.00090873104606137,0.00090913257544499,-3.6630871070054e-06,3.9543905490033e-06,-0.0010409463067671,0.0010354104027369,-0.001038320881629,0.0010377505623274,-0.0010375742727336,0.0010390005095719,-0.0010346526228484,0.0010414680593762,-0.00088374491461738,0.0008970377329275,-0.00089420957589557,0.00088730109166724,0.7621398499849,131688,2924,0.0037817104112498,0.0070790669309378,0.0037817804814872,29.29448690667,0.00014955589525336,0.00014955589525336,0.00014955589525336,2556542.274465,0.014750808570288
33419200,0.99996565899433,0.015797763528396,0.0047338749909969,0.0063298477640215,0.0047340407733776,-0.00090709298587077,0.00090754692446443,5.5433920259402e-06,-4.9922744991379e-06,-6.2652569755257e-07,9.0666069723346e-07,-0.001036552925925,0.001040253259126,-0.0010398601508254,0.0010365389547206,-0.0010361038496701,0.0010404311059069,-0.0010394028148511,0.0010367425474175,-0.00088393327753634,0.00089531735866318,-0.00089351234925673,0.00088508925070262,2.7600616886204e-06,1.1336131695975e-06,5.9517152318893e-06,-1.8059039144764e-06,-0.001705580191507,0.0017095603940721,-0.0018779621455578,0.0018849318622264,-0.0018809781421582,0.0018827581901261,-0.0018784048651147,0.0018845564798455,-0.0018813774893393,0.0018820301984244,-0.0014903687669611,0.0015018769660173,-0.0014983948571604,0.0014943586146365,-0.0014949115201548,0.0014979502663511,-0.0014967294654115,0.001496147348101,-5.092671937344e-06,5.4210235830138e-06,-0.00090715076934453,0.0009075214039564,-3.5919982074826e-06,3.8467223290568e-06,-0.0010411048543671,0.0010355998452436,-0.001038538149895,0.001037881594191,-0.0010377320399103,0.0010391888541939,-0.0010348715266891,0.0010415993527606,-0.00088229054900583,0.00089549336535662,-0.0008927576647735,0.00088576119127895,0.77028159823268,131688,2924,0.0037751095676955,0.0070885381639852,0.0037751770671931,29.317262035562,0.00014973809628449,0.00014973809628449,0.00014973809628449,2521279.5540545,0.014747032912398
34419200,0.99997710790457,0.015797942979189,0.0047339281396696,0.0063299209186084,0.0047340939209107,-0.00090871841911862,0.00090917399937908,5.5405010213309e-06,-4.9960611950949e-06,-6.3066584447925e-07,9.2198647169303e-07,-0.0010390841414068,0.0010427801334161,-0.0010423955542827,0.0010390648170789,-0.0010386304485535,0.0010429655920438,-0.0010419350658688,0.0010392936437814,-0.00088588835624924,0.00089725975147735,-0.00089546212378574,0.00088705947994303,2.7594861065886e-06,1.1113143168352e-06,5.9704428449127e-06,-1.8478174881629e-06,-0.0017107756524951,0.0017147361771294,-0.0018833154650769,0.0018903017938333,-0.0018863425870649,0.0018881128408283,-0.0018837617109721,0.0018899227316726,-0.0018867535057286,0.0018873470987847,-0.001495235369186,0.0015068009992635,-0.0015033159861245,0.0014991503844949,-0.001499814661518,0.0015028449729488,-0.0015016500869235,0.0015009873498247,-5.088215977523e-06,5.4255895491079e-06,-0.0009087696074534,0.00090915156823308,-3.6100360165758e-06,3.8852175702383e-06,-0.0010436313131769,0.0010381241003521,-0.0010410554403393,0.0010404161995739,-0.0010402545025517,0.0010417037151362,-0.0010373875550911,0.0010441457205749,-0.00088423503249935,0.00089746641358803,-0.00089468732448666,0.0008877231511964,0.74169710777894,131688,2924,0.0037818774690586,0.0071099716375688,0.0037819376703286,31.480106692951,0.00016704085354361,0.00016704085354361,0.00016704085354361,2515467.999139,0.014782512920223
35419200,0.99998608681691,0.015798078847208,0.0047339682701893,0.0063299765265666,0.0047341340504525,-0.00091446731886353,0.00091493563658101,5.5608948670748e-06,-5.0046021419962e-06,-6.6171856432032e-07,9.6724857364548e-07,-0.0010446488702343,0.0010483478830913,-0.0010479869543035,0.0010446225636227,-0.001044180091121,0.0010485571694525,-0.001047486519185,0.0010448846970728,-0.00089193544265311,0.00090336351487709,-0.00090151936081848,0.00089315691455231,2.7831195087087e-06,1.0580978473381e-06,6.035983214261e-06,-1.9373574671505e-06,-0.0017193839559073,0.0017233189815198,-0.0018931171753221,0.0019001555196387,-0.0018961894863047,0.0018979212689805,-0.0018935832363937,0.0018997557555334,-0.0018966331353925,0.0018971076233545,-0.0015025176680764,0.0015142059660792,-0.0015107477376534,0.0015063732985702,-0.0015071441723909,0.0015101906278267,-0.0015090779871852,0.0015082382335321,-5.109362790642e-06,5.434460748724e-06,-0.00091452976837898,0.00091490980409897,-3.6840100674878e-06,3.9645172526458e-06,-0.0010492437369628,0.0010436694478819,-0.0010466036258698,0.0010460127448357,-0.0010458573988713,0.0010472587967299,-0.0010429273396792,0.0010497561850067,-0.00089027308833311,0.00090358017473864,-0.00090075274505456,0.00089381920412793,0.71641844392041,131688,2924,0.0038057775800303,0.0071455359441209,0.0038058541564401,35.925106813241,0.00020260085450593,0.00020260085450593,0.00020260085450593,2548262.7120461,0.014867122880343
36419200,0.99999183639976,0.015798167586928,0.004733994515755,0.0063300127756261,0.0047341602955468,-0.00091602444419202,0.0009164933093236,5.5757179110575e-06,-5.0100099220217e-06,-6.6209484040087e-07,9.5971551814062e-07,-0.0010454239840615,0.0010491257840111,-0.0010487489556086,0.0010453956886693,-0.0010449467006906,0.0010493339227939,-0.0010482630242494,0.0010456295983457,-0.00089343698693534,0.0009049141084781,-0.00090306569791938,0.00089463732556138,2.7886199323643e-06,1.0733346384446e-06,6.0607447320307e-06,-1.9453871924729e-06,-0.0017220698063907,0.0017260189944445,-0.0018973429666763,0.0019043927576596,-0.001900437785252,0.0019021345146879,-0.0018978135593695,0.0019039867969447,-0.0019008655111391,0.0019013764035814,-0.0015035842313541,0.0015152766735218,-0.0015118491853264,0.0015075094267065,-0.0015082311928214,0.001511244257845,-0.0015101354661342,0.0015093515262801,-5.098248023249e-06,5.4654360398631e-06,-0.00091607006846546,0.00091647949786489,-3.6929456729359e-06,3.9921654300807e-06,-0.0010500078469994,0.0010444412024514,-0.0010473597841131,0.0010468051280707,-0.0010466181967348,0.001048046457653,-0.0010436767872466,0.0010505390696429,-0.00089175507692358,0.00090512746197688,-0.00090227106586803,0.0008953458271144,0.73065039164643,131688,2924,0.003812247492402,0.0071566951976594,0.0038123140655606,37.478875580644,0.00021503100464515,0.00021503100464515,0.00021503100464515,2565106.7759535,0.014891563514802
37419200,0.99999523230076,0.015798219183946,0.0047340097554552,0.0063300338935753,0.0047341755349153,-0.00091542213679054,0.00091588706457706,5.5639699287686e-06,-5.0042283072447e-06,-6.5450469890387e-07,9.5051251682674e-07,-0.0010458029756377,0.0010495000111732,-0.0010491221513243,0.0010457752222802,-0.0010453298466441,0.0010497024063962,-0.0010486418644003,0.0010460056135161,-0.00089271016070328,0.0009041548322368,-0.00090232079978375,0.00089389892884726,2.7808615329112e-06,1.0824787305882e-06,6.061219841453e-06,-1.9457423352234e-06,-0.0017241902646186,0.0017281409186609,-0.0018990477749591,0.0019060930474817,-0.0019021404878267,0.0019038358742916,-0.0018995123113791,0.0019056941598616,-0.0019025626923095,0.0019030811299112,-0.0015058978194717,0.0015176028505839,-0.0015141630894145,0.0015098189587722,-0.001510561242425,0.0015135589021029,-0.0015124422547497,0.0015116764811573,-5.0877785997164e-06,5.4583739498354e-06,-0.00091546475019712,0.00091587621455337,-3.6913745605976e-06,3.9948253394789e-06,-0.0010503786582045,0.001044820162574,-0.0010477334583119,0.0010471825749033,-0.0010469950130328,0.0010484181373216,-0.0010440550427365,0.0010509124876935,-0.00089102330100507,0.00090438080133991,-0.00090151855510889,0.00089461151090205,0.71959281431951,131688,2924,0.0038097534319462,0.0071654501217476,0.0038098199147275,37.680188805274,0.00021664151044219,0.00021664151044219,0.00021664151044219,2544579.3040385,0.014895395585818
38419200,0.99999718428191,0.015798249956036,0.0047340188789098,0.0063300464189458,0.00473418465818,-0.00091377974028919,0.00091423870468282,5.5622420904064e-06,-5.0065352998977e-06,-6.3959317995495e-07,9.2634980572326e-07,-0.0010439361002713,0.0010476411234582,-0.0010472558867481,0.0010439169026914,-0.0010434769679879,0.0010478305699574,-0.0010467879667022,0.0010441327412149,-0.00089108463229265,0.00090251620067076,-0.0009006970625636,0.00089225704796856,2.7698655740815e-06,1.1103817971377e-06,6.0450677216918e-06,-1.9125118130269e-06,-0.0017231478162731,0.0017271146851717,-0.001898514943179,0.0019055481014334,-0.0019015938548734,0.0019033065482951,-0.0018989677455536,0.0019051612828178,-0.0019020037665379,0.0019025663079589,-0.001504405067215,0.0015160861802163,-0.0015126228604849,0.0015083654778581,-0.0015090558766559,0.0015120482703591,-0.0015109050621576,0.0015102109324305,-5.0959196937377e-06,5.4508517845634e-06,-0.00091382624417674,0.00091422376538286,-3.6752542734171e-06,3.9618885678625e-06,-0.0010485165347046,0.0010429599312183,-0.0010458844308669,0.0010453076313178,-0.0010451319951305,0.0010465591090914,-0.0010422068294406,0.0010490363069364,-0.00088940351819873,0.00090273193857957,-0.0008999027976161,0.00089296641783488,0.74583042862226,131688,2924,0.0038029248732302,0.0071611761637027,0.0038029909339513,37.196433269656,0.00021277146615725,0.00021277146615725,0.00021277146615725,2538149.6303118,0.014877193807762
38880000,0.99999786590602,0.015798260763123,0.0047340220861405,0.0063300508116379,0.0047341878653442,-0.00091322994922104,0.00091368231036376,5.5507458673184e-06,-5.0014332943022e-06,-6.246658697326e-07,9.038491025833e-07,-0.0010446215807185,0.0010483271307355,-0.0010479347413928,0.0010446074181693,-0.0010441740442037,0.001048503486124,-0.001047479283975,0.0010448108542657,-0.00089047656871082,0.00090187261563034,-0.00090007297324573,0.00089163048394647,2.7564881173736e-06,1.1345346994535e-06,5.928620687075e-06,-1.7858448605565e-06,-0.0017248260384634,0.0017288034755877,-0.0018993376230193,0.001906289309371,-0.0019023391217986,0.0019041299554076,-0.0018997786965525,0.0019059154145106,-0.0019027374144218,0.0019034024736468,-0.0015068594192481,0.0015183254080955,-0.0015148434648229,0.0015108463413656,-0.0015113773122276,0.0015144243047369,-0.0015131908640649,0.0015126242226665,-5.1060060572939e-06,5.4241749609727e-06,-0.00091329153091188,0.0009136521081529,-3.5756735155585e-06,3.8205032596182e-06,-0.0010491763922522,0.0010436701115803,-0.0010466243862416,0.0010459377441714,-0.0010457974728422,0.0010472636373674,-0.001042952184325,0.0010496609304181,-0.00088884532016203,0.00090203971916184,-0.00089932818853281,0.00089229092741384,0.74998939216907,131688,2924,0.0038006417975266,0.0071681143384256,0.0038007074714068,37.193663116545,0.00021274930493236,0.00021274930493236,0.00021274930493236,2515816.9948568,0.014879612042911
