time,ASR_ext,ASR_strain,ASR_strain_xx,ASR_strain_yy,ASR_strain_zz,disp_x_101,disp_x_102,disp_x_103,disp_x_104,disp_x_105,disp_x_106,disp_x_p1_neg,disp_x_p1_pos,disp_x_p2_neg,disp_x_p2_pos,disp_x_p3_neg,disp_x_p3_pos,disp_x_p4_neg,disp_x_p4_pos,disp_x_p5_neg,disp_x_p5_pos,disp_x_p6_neg,disp_x_p6_pos,disp_y_101,disp_y_102,disp_y_103,disp_y_104,disp_y_105,disp_y_106,disp_y_p1_neg,disp_y_p1_pos,disp_y_p2_neg,disp_y_p2_pos,disp_y_p3_neg,disp_y_p3_pos,disp_y_p4_neg,disp_y_p4_pos,disp_y_p5_neg,disp_y_p5_pos,disp_y_p6_neg,disp_y_p6_pos,disp_y_p7_neg,disp_y_p7_pos,disp_y_p8_neg,disp_y_p8_pos,disp_z_101,disp_z_102,disp_z_103,disp_z_104,disp_z_105,disp_z_106,disp_z_p1_neg,disp_z_p1_pos,disp_z_p2_neg,disp_z_p2_pos,disp_z_p3_neg,disp_z_p3_pos,disp_z_p4_neg,disp_z_p4_pos,disp_z_p5_neg,disp_z_p5_pos,disp_z_p6_neg,disp_z_p6_pos,humidity,ndof,nelem,strain_xx,strain_yy,strain_zz,temp,thermal_strain_xx,thermal_strain_yy,thermal_strain_zz,vonmises,vstrain
2419200,0,0,0,0,0,0,0,0,0,0,0,0,0,0,0,0,0,0,0,0,0,0,0,0,0,0,0,0,0,0,0,0,0,0,0,0,0,0,0,0,0,0,0,0,0,0,0,0,0,0,0,0,0,0,0,0,0,0,0,0,0,0,0,0,0,0,0,0,0,0,0,0,0,0,0
2919200,0.076371511245895,0.0015950749663759,0.00053169165545863,0.00053169165545863,0.00053169165545863,-0.00016512284306632,0.0001651111523258,-4.3838090615422e-09,-4.3838090280737e-09,-3.9067445368082e-09,-4.7560754550346e-09,-0.00016473248359519,0.00016472320887767,-0.00016473342764746,0.00016472415293364,-0.00016473278279057,0.00016472291984633,-0.00016473370807598,0.00016472384513493,-0.00016735867751189,0.0001673491731769,-0.00016735955722651,0.00016735005288167,-2.3893464741642e-10,5.0876137035113e-10,-2.6433436262696e-10,5.2388667073947e-10,-0.00017201152368044,0.00017201178399592,-0.00017056071826451,0.00017056036776722,-0.00017056131810668,0.00017056158989795,-0.00017056133207331,0.00017056157557056,-0.00017056193190727,0.00017056279771221,-0.00017249835724072,0.00017249812666532,-0.00017249848710011,0.00017249976744819,-0.00017249832925124,0.00017249815500924,-0.00017249849484354,0.00017249975948907,-4.3877913843197e-09,-4.3877913704819e-09,-0.00016512284705685,0.00016511114833546,-3.8949602747622e-09,-4.7763110193245e-09,-0.00016473247813268,0.00016472320922345,-0.00016473279608299,0.00016472291164238,-0.00016473342282392,0.00016472415391349,-0.00016473372075468,0.00016472383631827,-0.00016735956752131,0.00016735004365601,-0.00016735868924295,0.00016734916537884,0.83502648770561,122718,2924,0.00068775034239934,0.00071645753936892,0.00068775034239974,32.402102006031,0.00017441681604825,0.00017441681604825,0.00017441681604825,858724.07929426,0.0020941494377073
3419200,0.15583025984788,0.0031289147110424,0.0010347788599747,0.0010593569910933,0.0010347788599744,-0.00027955018027322,0.00027954368659816,-1.9969767373712e-09,-1.9969031027839e-09,-2.2387942895142e-09,-1.7544416476002e-09,-0.00028393339277871,0.00028392885258664,-0.00028393478269285,0.0002839302429234,-0.00028393322370965,0.00028392902924469,-0.00028393461181652,0.00028393041777961,-0.00028264403093608,0.00028263982612004,-0.0002826461702871,0.00028264196581338,6.4950308349428e-11,-4.3101687316789e-10,9.3543697127793e-11,-4.5603798660255e-10,-0.00030096225390759,0.00030096189295053,-0.00030079613708194,0.00030079615858764,-0.00030079744153205,0.00030079706465983,-0.00030079742331439,0.00030079708377931,-0.00030079872765128,0.0003007979897515,-0.00029899751711188,0.00029899752953738,-0.00029900033243984,0.00029899928079157,-0.00029899755327797,0.00029899749262873,-0.0002990003179494,0.00029899929576716,-1.9880714144815e-09,-1.9879978233546e-09,-0.0002795501713623,0.00027954369550824,-2.2542904379451e-09,-1.7203702674975e-09,-0.00028393339458064,0.00028392885349989,-0.00028393320439376,0.00028392904590675,-0.00028393478408188,0.00028393024341735,-0.00028393459285066,0.00028393043479153,-0.00028264615261038,0.00028264198312945,-0.00028264401264915,0.000282639842814,0.77960726241633,122718,2924,0.0011641020429986,0.001253219827604,0.0011641020429969,31.910922993408,0.00017048738394726,0.00017048738394726,0.00017048738394726,1246157.8984669,0.0035878474587174
3919200,0.2431472599232,0.0047248365392634,0.0015388200040939,0.0016471965310782,0.0015388200040913,-0.00039577444145648,0.00039576923472346,-1.6749467810522e-09,-1.6747336526206e-09,-2.2444693065907e-09,-9.9763086775297e-10,-0.00040635412555308,0.00040635005509391,-0.00040635525538542,0.00040635118525182,-0.00040635369222148,0.00040635048812986,-0.00040635483264571,0.00040635162886966,-0.00039846494049242,0.00039846156214472,-0.0003984664693105,0.00039846309123191,2.7283652453881e-10,-9.0576764120707e-10,3.3725604569166e-10,-9.5187959258478e-10,-0.00044665504514797,0.0004466544307883,-0.00045335171842743,0.0004533519742443,-0.00045335299917903,0.00045335235565452,-0.00045335296164935,0.00045335239479105,-0.00045335424223853,0.00045335277607059,-0.00043681752167512,0.00043681778210824,-0.00043681998638592,0.00043681771216837,-0.00043681760159994,0.00043681770017427,-0.0004368199602609,0.00043681773961979,-1.6565940192707e-09,-1.6563809229718e-09,-0.00039577442309263,0.00039576925308617,-2.2715490358686e-09,-9.3151370763439e-10,-0.00040635412779657,0.00040635005971736,-0.0004063536541867,0.00040635051947947,-0.00040635525654926,0.00040635118879232,-0.00040635479550339,0.00040635166111189,-0.00039846643440499,0.00039846312486347,-0.00039846490284051,0.00039846159301852,0.74640349119053,122718,2924,0.0016476985369776,0.0018593219315568,0.0016476985369753,32.496230739931,0.00017516984591944,0.00017516984591944,0.00017516984591944,1810943.0108535,0.0051680336814286
4419200,0.33870256623927,0.006448530375762,0.0020722339428763,0.0023040624900117,0.002072233942874,-0.00051889369199637,0.0005188899591755,-1.0861565005744e-09,-1.0859832417353e-09,-2.1887904601791e-09,-1.105684465628e-10,-0.00053601932622174,0.00053601630098145,-0.00053602023659147,0.00053601721169039,-0.00053601860498083,0.00053601701735707,-0.00053601953572124,0.00053601794842941,-0.00052170779942043,0.00052170595814313,-0.00052170882003992,0.00052170697894902,4.2549173254905e-10,-1.518697881234e-09,5.2222651745601e-10,-1.587662634761e-09,-0.00061081926047199,0.00061081819479604,-0.00062748358731396,0.00062748394251533,-0.00062748497858038,0.00062748386832,-0.00062748492236203,0.00062748392702257,-0.00062748631354221,0.00062748385277947,-0.00059011326322014,0.00059011361915752,-0.00059011655654891,0.00059011276828961,-0.00059011338374476,0.00059011349523505,-0.00059011651734507,0.00059011280973166,-1.0593609100749e-09,-1.059187679764e-09,-0.00051889366523348,0.00051888998593737,-2.228932980451e-09,-1.2808693454586e-11,-0.00053601932876194,0.00053601630721165,-0.00053601855066866,0.00053601706325561,-0.00053602023763122,0.00053601721641587,-0.00053601948254713,0.00053601799546414,-0.00052170876883169,0.00052170702806629,-0.00052170774403775,0.00052170600307519,0.74424082049435,122718,2924,0.0021597397920502,0.0025418197689104,0.0021597397920481,33.59782457458,0.00018398259659664,0.00018398259659664,0.00018398259659664,2352495.5231556,0.0068849074340717
4669200,0.38880775197974,0.0073463295400924,0.0023429336994322,0.0026604621412302,0.0023429336994301,-0.00058149344395698,0.00058149029444682,-8.0341978240618e-10,-8.0324237815506e-10,-2.0775190290598e-09,3.0006842429208e-10,-0.0006025238301692,0.00060252130865885,-0.0006025246724476,0.00060252215133297,-0.00060252300963893,0.00060252212528051,-0.00060252387250138,0.00060252298853476,-0.00058434685078299,0.00058434563952803,-0.00058434779165252,0.00058434658055115,4.8843788645491e-10,-1.7479014321199e-09,6.2293643245488e-10,-1.8492437584608e-09,-0.00070068635134274,0.00070068512395651,-0.00072354918045545,0.00072354957525078,-0.00072355064924149,0.00072354935549953,-0.00072355056935714,0.00072354943827669,-0.00072355203806673,0.00072354921848609,-0.00067283765924806,0.00067283811981213,-0.00067284126043738,0.00067283685492803,-0.00067283782863274,0.00067283794633421,-0.00067284120154106,0.00067283691653862,-7.7230724817606e-10,-7.721298518748e-10,-0.00058149341289029,0.00058149032551234,-2.1456726265565e-09,4.3554990023252e-10,-0.00060252383973785,0.0006025213088645,-0.00060252294012002,0.00060252218555833,-0.00060252468015679,0.0006025221496751,-0.00060252380430208,0.00060252305013009,-0.00058434772495974,0.00058434664493001,-0.00058434677923842,0.00058434569904509,0.74433313050156,122718,2924,0.0024199935918363,0.0029152328900415,0.0024199935918339,34.466736468832,0.00019093389175065,0.00019093389175065,0.00019093389175065,2588366.6610088,0.0077853927093499
5169200,0.49274924880791,0.0091444381173233,0.0028770000343535,0.0033904380486186,0.0028770000343512,-0.0007025374147885,0.00070253581380979,-1.2407834855045e-10,-1.2389156820413e-10,-1.54013996207e-09,1.0158729198384e-09,-0.00073293995703769,0.00073293882942729,-0.00073294065757463,0.00073293953044406,-0.00073293907123686,0.00073293970666325,-0.0007329397944349,0.0007329404303426,-0.00070449632670645,0.00070449654097715,-0.0007044970332679,0.00070449724764768,4.7477948057748e-10,-1.9237840689378e-09,6.2759018766821e-10,-2.0390272427644e-09,-0.0008851519856933,0.000885150572467,-0.00092294366389933,0.00092294398517028,-0.000922945120765,0.00092294363215988,-0.00092294502874191,0.00092294372621855,-0.00092294648554272,0.00092294337318035,-0.00084016617355858,0.00084016658849577,-0.00084016993845971,0.00084016510228446,-0.00084016636889023,0.00084016638945613,-0.00084016987083452,0.00084016517239933,-9.6093017336046e-11,-9.5906212733975e-11,-0.00070253738696734,0.00070253584162975,-1.625270876208e-09,1.1624661096251e-09,-0.00073293997256737,0.00073293882215754,-0.00073293900253602,0.00073293976781627,-0.00073294067116888,0.00073293952123509,-0.00073293972695305,0.00073294049271104,-0.00070449696511559,0.00070449731339052,-0.00070449625333781,0.00070449660148939,0.72121785335581,122718,2924,0.0029230558949519,0.0036812719014733,0.0029230558949494,35.952741308335,0.00020282193046668,0.00020282193046668,0.00020282193046668,3026436.4052968,0.0095729589164922
5669200,0.58971994459288,0.010653672425137,0.0033118597460071,0.0040299529331247,0.0033118597460047,-0.00079695588125808,0.00079695633833362,7.3597849664154e-10,7.3617277559948e-10,-8.439376175645e-10,1.9943775507525e-09,-0.00083817330732439,0.00083817397191834,-0.00083817384225042,0.00083817450735645,-0.00083817232406707,0.00083817494456593,-0.00083817288475771,0.00083817550577274,-0.00079552472441119,0.00079552677528364,-0.00079552527803547,0.00079552732899937,5.3661945342346e-10,-2.1214168915672e-09,7.1311053813903e-10,-2.256051159568e-09,-0.0010467631436607,0.0010467615987898,-0.0011037735153589,0.0011037739032853,-0.0011037749226928,0.0011037732897019,-0.0011037748158745,0.001103773398502,-0.0011037762231429,0.0011037727848967,-0.00098109838114788,0.00098109887098609,-0.00098110233167907,0.00098109698149651,-0.00098109860692285,0.00098109864145469,-0.00098110225229044,0.00098109706340731,7.6345690843021e-10,7.6365112595288e-10,-0.00079695585403887,0.00079695636555205,-9.4881003962223e-10,2.1602276327102e-09,-0.00083817333033694,0.00083817395780633,-0.00083817224941221,0.00083817501111245,-0.00083817386314335,0.00083817449112283,-0.00083817281142405,0.00083817557363715,-0.00079552520360544,0.00079552740073422,-0.00079552464416649,0.00079552684118878,0.65441087737579,122718,2924,0.0033153256845049,0.0043519097882663,0.0033153256845032,36.588854133486,0.00020791083306789,0.00020791083306789,0.00020791083306789,3358750.2418007,0.011043169858487
6169200,0.67416356930638,0.011847917815319,0.003649072231237,0.0045497733528474,0.0036490722312351,-0.00086670674985349,0.00086670913670234,1.544411747818e-09,1.5446081006111e-09,-2.7501613907257e-10,3.00726566401e-09,-0.00091743134506978,0.00091743368384811,-0.0009174317176284,0.00091743405693506,-0.00091743021040712,0.00091743480727748,-0.00091743061288212,0.00091743521028576,-0.00086125033260952,0.00086125417862386,-0.00086125079492408,0.00086125464101842,6.3325011214376e-10,-2.4369814959175e-09,8.439281527507e-10,-2.5992617660431e-09,-0.0011782947822636,0.0011782930245866,-0.0012558347374065,0.0012558352243576,-0.0012558361245339,0.0012558342601222,-0.0012558359970078,0.0012558343903134,-0.0012558373840668,0.001255833426053,-0.0010917202201536,0.001091720819828,-0.0010917245344682,0.0010917183692291,-0.0010917204886672,0.0010917205465886,-0.0010917244387186,0.0010917184681471,1.5770355189415e-09,1.5772318368853e-09,-0.00086670671750719,0.00086670916904746,-4.0190507851691e-10,3.2067630568977e-09,-0.00091743137390542,0.00091743366606091,-0.00091743012029251,0.00091743488737327,-0.00091743174387881,0.00091743403655736,-0.00091743052431908,0.00091743529192971,-0.00086125070558489,0.00086125472716685,-0.00086125023648995,0.00086125425797588,0.59986881211259,122718,2924,0.0036050471300283,0.0048973931172482,0.0036050471300259,36.760774999644,0.00020928619999715,0.00020928619999715,0.00020928619999715,3607627.3576285,0.01218120115133
6669200,0.7464699041544,0.012973731175218,0.0039671749143875,0.0050393813464451,0.0039671749143851,-0.00093137594456983,0.00093137931341282,1.9740010742215e-09,1.9741993058083e-09,-8.9555168345933e-11,3.6567408623709e-09,-0.00098897433469925,0.00098897749137529,-0.00098897462193102,0.00098897777914236,-0.00098897304399943,0.0009889787721185,-0.00098897336362355,0.00098897909228419,-0.00092540150580908,0.00092540637440135,-0.00092540193377429,0.0009254068024359,7.3698195797178e-10,-2.772461225095e-09,9.9339597378784e-10,-2.9734141080047e-09,-0.0013045998994076,0.0013045979164271,-0.0013975711744253,0.0013975717634314,-0.0013975726181465,0.0013975705023699,-0.0013975724626004,0.0013975706616772,-0.001397573906252,0.0013975694005883,-0.0012015993735369,0.0012016001140574,-0.0012016041453152,0.0012015970940822,-0.0012015996996955,0.0012015997815736,-0.0012016040263805,0.0012015972172627,2.014349793923e-09,2.014548026823e-09,-0.00093137590450076,0.00093137935348038,-2.4655583856485e-10,3.9037787879748e-09,-0.0009889743706261,0.00098897746880894,-0.00098897293221084,0.00098897887189895,-0.00098897465473053,0.00098897775344334,-0.0009889732536043,0.00098897919383047,-0.00092540182332837,0.00092540690925747,-0.00092540138763467,0.00092540647347893,0.66165535552964,122718,2924,0.0038736119788618,0.005420907357513,0.0038736119788587,37.281269524966,0.00021345015619972,0.00021345015619972,0.00021345015619972,3750297.6547707,0.013255364712795
7169200,0.81243983420903,0.013926859016215,0.0042314385091468,0.0054639819979245,0.0042314385091442,-0.00098186095150237,0.00098186250875661,1.3137072782161e-09,1.3139055079713e-09,-7.516094214106e-10,2.9999097625219e-09,-0.0010504750175476,0.0010504766897031,-0.0010504754481308,0.0010504771208217,-0.0010504737277429,0.0010504779720968,-0.0010504741868993,0.001050478431795,-0.00097432302527675,0.00097432648746596,-0.00097432352309775,0.00097432698535063,7.245868262816e-10,-2.8032298490759e-09,1.0153811727433e-09,-3.0373191786311e-09,-0.0014236763168187,0.0014236742916774,-0.0015312887720431,0.0015312893296995,-0.0015312903568831,0.0015312881770814,-0.0015312901789529,0.0015312883592686,-0.00153129176372,0.0015312872066193,-0.0013038393770201,0.0013038401627443,-0.0013038443212197,0.0013038371368301,-0.001303839748695,0.0013038397837757,-0.0013038441813763,0.0013038372816165,1.3558612511783e-09,1.3560594606231e-09,-0.00098186090963627,0.00098186255062127,-9.3902561529438e-10,3.2823351773022e-09,-0.0010504750620783,0.0010504766577702,-0.0010504736043579,0.0010504780845611,-0.0010504754894199,0.0010504770856419,-0.0010504740650721,0.0010504785458148,-0.00097432340001237,0.00097432710502017,-0.00097432289452239,0.00097432659945115,0.61446564185734,122718,2924,0.0040832823199567,0.005914164192575,0.0040832823199537,39.970330125568,0.00023496264100454,0.00023496264100454,0.00023496264100454,3731406.9188617,0.014180532693607
7419200,0.842158239006,0.014322058721233,0.0043395640186509,0.0056429306839334,0.0043395640186482,-0.0010010488912246,0.0010010517845663,1.8283006166068e-09,1.8284995618642e-09,-3.2059154267968e-10,3.5795813207772e-09,-0.0010735965397232,0.0010735993026112,-0.0010735968715381,0.0010735996349618,-0.0010735951987354,0.0010736006357987,-0.0010735955606139,0.0010736009982208,-0.00099201865756778,0.00099202324724752,-0.00099201910069811,0.00099202369044051,7.5675750934226e-10,-2.9063159684833e-09,1.0804702097297e-09,-3.1710673808918e-09,-0.0014724840786412,0.0014724819847301,-0.0015885905121228,0.0015885911235772,-0.0015885920868551,0.0015885898180209,-0.0015885918882314,0.0015885900217614,-0.0015885934628888,0.0015885887161736,-0.0013434479060776,0.0013434487695491,-0.0013434530020745,0.0013434455091858,-0.0013434483198889,0.0013434483473472,-0.0013434528430885,0.001343445673872,1.8750767511924e-09,1.8752756643216e-09,-0.0010010488447337,0.0010010518310557,-5.3315977598188e-10,3.897746746108e-09,-0.0010735965904602,0.001073599265193,-0.0010735950604647,0.0010736007626465,-0.0010735969187898,0.0010735995940545,-0.0010735954239269,0.001073601126649,-0.00099201896272889,0.00099202382487905,-0.00099201851165913,0.00099202337373253,0.56608672836729,122718,2924,0.0041629773191681,0.0061162846643171,0.0041629773191651,40.767117828942,0.00024133694263153,0.00024133694263153,0.00024133694263153,3749700.1076422,0.014547255787472
7919200,0.88674150775145,0.014858993125025,0.0044860025011169,0.0058869881227939,0.0044860025011142,-0.00102028018999,0.0010202855113069,2.785223832526e-09,2.7854232604787e-09,4.2657076904846e-10,4.7279311806537e-09,-0.0010995330981802,0.0010995378691665,-0.001099533249426,0.0010995380209494,-0.0010995316214532,0.0010995393387683,-0.0010995318057388,0.001099539523599,-0.0010088573005776,0.0010088640175477,-0.001008857674481,0.0010088643915102,8.5752933724385e-10,-3.1794748502258e-09,1.2270708591217e-09,-3.4843384244411e-09,-0.0015400689377903,0.0015400666768616,-0.0016699116840836,0.001669912427443,-0.0016699132393074,0.0016699107764981,-0.0016699130123475,0.0016699110096525,-0.0016699145674949,0.0016699093586756,-0.0013965100615706,0.0013965110781602,-0.0013965155179306,0.0013965072832875,-0.0013965105329205,0.0013965105969975,-0.0013965153345899,0.0013965074733188,2.8375688777333e-09,2.8377682964206e-09,-0.0010202801379553,0.0010202855633402,1.8034271930078e-10,5.092713221492e-09,-0.0010995331587456,0.0010995378241423,-0.001099531463096,0.001099539483797,-0.0010995333060265,0.0010995379719565,-0.0010995316491272,0.001099539670371,-0.0010088575171931,0.0010088645449728,-0.0010088571345865,0.0010088641622915,0.5131263819828,122718,2924,0.004242903193092,0.0063960847553066,0.004242903193089,40.955996833571,0.00024284797466857,0.00024284797466857,0.00024284797466857,3719399.3818071,0.0149934387037
8419200,0.91990891756081,0.015237395317305,0.004589639415153,0.0060581164870014,0.0045896394151502,-0.00103183447304,0.0010318399174625,2.8573663525847e-09,2.8575655725617e-09,3.5398136789161e-10,4.9472022517789e-09,-0.0011163210277389,0.0011163258647317,-0.0011163211763261,0.0011163260138557,-0.0011163194566706,0.0011163274325073,-0.0011163196372672,0.0011163276136484,-0.0010187531236517,0.0010187600747201,-0.0010187535069437,0.0010187604580699,9.3513820240512e-10,-3.3900491690308e-09,1.3601548793786e-09,-3.7460603846031e-09,-0.0015899750642164,0.0015899726743161,-0.0017299676997751,0.0017299685386971,-0.0017299693666292,0.001729966740728,-0.0017299691048677,0.0017299670101577,-0.0017299707716452,0.0017299652121553,-0.001435714774179,0.0014357159547674,-0.0014357206173892,0.001435711771003,-0.0014357153160967,0.0014357154011904,-0.0014357204025154,0.0014357119938658,2.9164438368339e-09,2.9166430888057e-09,-0.0010318344142801,0.0010318399762209,6.4461446629407e-11,5.3709139326788e-09,-0.0011163211003126,0.0011163258095103,-0.001116319273808,0.0011163276006131,-0.0011163212444628,0.0011163259541932,-0.0011163194562398,0.0011163277835867,-0.0010187533256472,0.0010187606354344,-0.0010187529330788,0.0010187602427941,0.48565810762892,122718,2924,0.0042909500282226,0.0066026356442514,0.0042909500282195,41.431987802636,0.00024665590242109,0.00024665590242109,0.00024665590242109,3659404.4023056,0.015300698202893
8919200,0.94407506526482,0.015483804357916,0.0046570477428325,0.0061697088722541,0.0046570477428297,-0.0010358014214143,0.0010358072459164,3.0196874431563e-09,3.0198863332413e-09,3.9557201322851e-10,5.2323223963189e-09,-0.0011253266554176,0.0011253317668774,-0.0011253267809754,0.0011253318929718,-0.001125325005089,0.001125333416631,-0.0011253251620964,0.0011253335741827,-0.0010214613737327,0.0010214687381655,-0.0010214617509657,0.0010214691154566,1.004146058086e-09,-3.559679271477e-09,1.4881892506635e-09,-3.9713737869628e-09,-0.0016252540788167,0.0016252515913942,-0.0017726328608816,0.0017726337996702,-0.0017726346116389,0.0017726318512332,-0.0017726343126755,0.0017726321595123,-0.0017726360633551,0.0017726302110406,-0.0014630181321004,0.0014630194826128,-0.0014630243028331,0.0014630149333144,-0.001463018749325,0.0014630188516781,-0.0014630240533181,0.0014630151922682,3.085402458014e-09,3.0856013414824e-09,-0.0010358013560086,0.0010358073113205,5.8343196655391e-11,5.7193374767836e-09,-0.0011253267413016,0.0011253316998164,-0.0011253247966088,0.0011253336092946,-0.0011253268619775,0.0011253318210245,-0.0011253249554854,0.0011253337687126,-0.0010214615443487,0.0010214693180744,-0.0010214611574312,0.0010214689310857,0.43383756047774,122718,2924,0.004307505984019,0.0067486022765882,0.0043075059840158,41.891014431813,0.0002503281154545,0.0002503281154545,0.0002503281154545,3570783.7351806,0.01548256202037
9169200,0.95390587394312,0.015582060708052,0.00468411503883,0.0062138306303943,0.0046841150388272,-0.0010373990937402,0.0010374071823078,3.9116717626458e-09,3.9118707211592e-09,1.0364362563504e-09,6.3735563591106e-09,-0.0011278669493614,0.0011278738982731,-0.0011278669096294,0.0011278738590775,-0.0011278651326237,0.0011278757172934,-0.0011278651269736,0.0011278757121875,-0.0010225430382794,0.0010225524323668,-0.0010225433714455,0.0010225527655901,1.140722995519e-09,-3.8990438615629e-09,1.7056637986124e-09,-4.3848286481417e-09,-0.0016370832274094,0.0016370805434694,-0.0017877242634103,0.0017877253928639,-0.0017877260474273,0.0017877230409977,-0.0017877256982528,0.0017877234019524,-0.0017877274821916,0.0017877210500514,-0.0014715202152794,0.0014715218239708,-0.0014715269076139,0.0014715165653253,-0.0014715209344725,0.0014715210882255,-0.0014715266124622,0.001471516871888,3.9891115912762e-09,3.989310543713e-09,-0.0010373990165768,0.0010374072594697,6.3835867105138e-10,6.9480042740889e-09,-0.001127867051356,0.0011278738186845,-0.0011278648858077,0.0011278759452052,-0.0011278670059492,0.0011278737738099,-0.0011278648823234,0.0011278759422629,-0.0010225431278634,0.0010225530047372,-0.0010225427840244,0.001022552660827,0.42433028815799,122718,2924,0.0043141693817567,0.0067975523946799,0.0043141693817535,41.527634739116,0.00024742107791293,0.00024742107791293,0.00024742107791293,3560540.6019593,0.015545811475016
9669200,0.9673459360668,0.015707180432698,0.0047186126231919,0.0062699551863174,0.0047186126231891,-0.0010342433710882,0.0010342520673844,4.1643506950294e-09,4.1645493208813e-09,1.0949846838592e-09,6.8285628908557e-09,-0.0011281268730629,0.0011281342472122,-0.001128126795894,0.0011281341705792,-0.0011281249279405,0.0011281361993388,-0.0011281248842688,0.0011281361562108,-0.0010188099643062,0.001018820012888,-0.0010188102945625,0.0010188203432016,1.2591782515276e-09,-4.1704757786218e-09,1.9114734579156e-09,-4.7382164643865e-09,-0.0016547391948453,0.0016547363628674,-0.0018095711600088,0.0018095724580168,-0.0018095730747839,0.0018095698657437,-0.0018095726708097,0.0018095702840489,-0.0018095745855061,0.0018095676917409,-0.0014844908280382,0.0014844927076506,-0.0014844980371235,0.0014844868692068,-0.001484491658206,0.0014844918578851,-0.0014844976911296,0.0014844872287538,4.2519332283291e-09,4.2521317928513e-09,-0.0010342432837511,0.0010342521547201,6.2682939455698e-10,7.4967281593902e-09,-0.0011281269947969,0.0011281341506806,-0.001128124642418,0.0011281364637318,-0.0011281269112327,0.0011281340676479,-0.0011281246010621,0.0011281364229171,-0.0010188100131637,0.0010188206199567,-0.0010188096715142,0.0010188202782363,0.39514152565896,122718,2924,0.0043011476341141,0.0068705761931305,0.0043011476341113,40.705319795975,0.0002408425583678,0.0002408425583678,0.0002408425583678,3482931.8273671,0.015593541806941
10169200,0.97626731622815,0.015794340431585,0.0047429609715801,0.0063084184884281,0.0047429609715772,-0.0010303893272552,0.0010304000521805,4.967623765912e-09,4.9678222573247e-09,1.6110308208441e-09,7.9254891086892e-09,-0.0011261982192549,0.0011262071965502,-0.0011261979991427,0.0011262069769738,-0.0011261960828729,0.0011262093445695,-0.0011261958978944,0.0011262091601346,-0.0010147767193497,0.0010147886395585,-0.0010147770194453,0.0010147889397106,1.4271009375166e-09,-4.5621257283965e-09,2.1920508446455e-09,-5.234662690648e-09,-0.0016641519290523,0.0016641488805457,-0.0018215529400092,0.0018215544806449,-0.0018215549495471,0.0018215514541147,-0.0018215544752479,0.001821551946126,-0.0018215564847067,0.0018215489195601,-0.0014909331056776,0.0014909353404542,-0.0014909409839777,0.0014909286522375,-0.0014909340784408,0.001490934344134,-0.0014909405731001,0.0014909290794328,5.069489220143e-09,5.0696876851683e-09,-0.0010303892255815,0.0010304001538526,1.0545331135608e-09,8.7148945149492e-09,-0.0011261983653656,0.0011262070798275,-0.0011261957460526,0.001126209656779,-0.0011261981378585,0.0011262068528518,-0.0011261955636847,0.0011262094749521,-0.0010147766882299,0.0010147892658377,-0.0010147763756458,0.001014788953183,0.4133766154653,122718,2924,0.0042852075147652,0.006909500420779,0.0042852075147619,38.952183617831,0.00022681746894265,0.00022681746894265,0.00022681746894265,3443660.6901219,0.015600705448448
10669200,0.98253083360269,0.015854930985347,0.0047599402507603,0.006335050483829,0.0047599402507575,-0.0010261293572443,0.0010261387488449,4.4525168135464e-09,4.4527148287651e-09,1.0113695743078e-09,7.5105044774201e-09,-0.0011254902729657,0.0011254980028449,-0.0011254901601455,0.0011254978905591,-0.0011254880821008,0.0011255002111342,-0.001125488000591,0.0011255001301669,-0.0010105545538986,0.0010105654550015,-0.0010105548774123,0.001010565778572,1.5099833506922e-09,-4.6796397522178e-09,2.382827039799e-09,-5.4574481413525e-09,-0.0016734068338472,0.001673403752961,-0.0018316133888785,0.0018316150816601,-0.0018316156296136,0.0018316120321423,-0.0018316150866916,0.0018316125958257,-0.0018316173273469,0.0018316095462714,-0.0014986911125244,0.0014986936607765,-0.0014986994320104,0.0014986865954905,-0.0014986922238459,0.0014986925222335,-0.0014986989548369,0.0014986870915551,4.5641753669726e-09,4.5643733164695e-09,-0.0010261292456675,0.0010261388604203,3.6157853584746e-10,8.4167132128442e-09,-0.0011254904459133,0.0011254978609614,-0.0011254877000599,0.0011255005675433,-0.0011254903250605,0.0011254977406389,-0.0011254876211433,0.0011255004891669,-0.0010105545011688,0.0010105661496869,-0.0010105541649392,0.0010105658133862,0.4089106216223,122718,2924,0.004267584664528,0.0069477389575824,0.004267584664525,38.023721246197,0.00021938976996957,0.00021938976996957,0.00021938976996957,3371699.1819234,0.015603763147806
11169200,0.98712466347505,0.015896082440152,0.0047714644817297,0.0063531534766957,0.0047714644817269,-0.0010239055628181,0.0010239135528462,3.9069846237814e-09,3.9071826562143e-09,4.9310668877289e-10,6.9397737722632e-09,-0.0011251360659183,0.0011251425908389,-0.0011251360562763,0.0011251425817316,-0.0011251338960588,0.0011251447805083,-0.0011251339148758,0.001125144799868,-0.0010083243010905,0.0010083340410685,-0.001008324646543,0.0010083343865783,1.5012015898807e-09,-4.649598006796e-09,2.4575898262589e-09,-5.5112406340288e-09,-0.0016802356989955,0.0016802326390727,-0.0018396105229538,0.0018396122509081,-0.0018396129081591,0.0018396092768999,-0.0018396123119569,0.0018396098966582,-0.0018396146970826,0.0018396069226137,-0.001503898454899,0.001503901168793,-0.0015039069541723,0.0015038940247184,-0.0015038996745862,0.0015038999185804,-0.0015039064235786,0.0015038945765204,4.0281792055815e-09,4.028377173372e-09,-0.0010239054416259,0.0010239136740368,-2.2845872644861e-10,7.940350097914e-09,-0.0011251362573275,0.0011251424306425,-0.0011251334776814,0.0011251451736785,-0.0011251362392374,0.0011251424130829,-0.0011251334989336,0.001125145195471,-0.0010083242331442,0.0010083347949365,-0.0010083238750703,0.0010083344367912,0.37844498486904,122718,2924,0.0042583905993834,0.0069759663812927,0.0042583905993802,37.877182248719,0.00021821745798975,0.00021821745798975,0.00021821745798975,3329153.5581407,0.015613764070247
11669200,0.99044566694169,0.015927324856586,0.0047802937290397,0.0063667373985092,0.0047802937290368,-0.0010224830457994,0.0010224917877593,4.2003238349937e-09,4.2005220050376e-09,7.5582840385998e-10,7.2613328993231e-09,-0.0011238938538669,0.0011239010242035,-0.0011238937877378,0.0011239009586096,-0.0011238916631965,0.0011239032344328,-0.0011238916263643,0.0011239031981438,-0.0010068281269567,0.0010068385034838,-0.0010068284595074,0.0010068388360915,1.5080721825771e-09,-4.6929815466057e-09,2.5384488076608e-09,-5.6276715813785e-09,-0.0016835491583466,0.0016835460628401,-0.0018442973450621,0.0018442991268345,-0.0018442997341352,0.0018442960196213,-0.0018442990912298,0.0018442966887935,-0.0018443014802234,0.001844293581544,-0.0015057077217751,0.001505710574646,-0.0015057163815987,0.0015057032061988,-0.0015057090368831,0.0015057092258896,-0.0015057158046448,0.0015057038065529,4.332421303459e-09,4.332619403716e-09,-0.0010224829136623,0.0010224919198949,-2.5399968518985e-11,8.3467218277223e-09,-0.0011238940592234,0.0011239008507798,-0.0011238912103746,0.0011239036618669,-0.0011238939841696,0.0011239007762569,-0.0011238911759152,0.001123903627948,-0.0010068280111221,0.0010068392793791,-0.0010068276658042,0.0010068389339901,0.39664511546585,122718,2924,0.0042525053378623,0.0069896757454623,0.0042525053378592,37.368078365218,0.00021414462692174,0.00021414462692174,0.00021414462692174,3320114.3444472,0.015615732852584
12169200,0.99286991646387,0.015954066541303,0.0047879320221322,0.0063782024970417,0.0047879320221293,-0.0010197844303683,0.0010197930566194,4.1536967457943e-09,4.1538945294819e-09,7.0322767606471e-10,7.22606670374e-09,-0.0011235040249336,0.0011235110705478,-0.0011235039695713,0.0011235110157198,-0.0011235018291975,0.0011235132863566,-0.0011235018023886,0.0011235132600899,-0.0010042533990886,0.00100426368511,-0.0010042537323137,0.0010042640183925,1.5317222954353e-09,-4.6889223313179e-09,2.6286485303565e-09,-5.6902107632612e-09,-0.0016883189353068,0.0016883158674134,-0.0018489434241574,0.0018489452877049,-0.0018489458689814,0.0018489421382812,-0.0018489451832875,0.0018489428519465,-0.0018489476280317,0.0018489397024862,-0.0015101416225987,0.0015101446473157,-0.0015101504256035,0.0015101371214296,-0.0015101430238711,0.0015101432103153,-0.001510149806125,0.001510137765783,4.2895415941988e-09,4.2897393080852e-09,-0.0010197842943903,0.0010197931925958,-1.3940644211124e-10,8.3825756988707e-09,-0.0011235042488289,0.0011235108787332,-0.0011235013508633,0.0011235137395185,-0.0011235041842882,0.0011235108147226,-0.0011235013263172,0.0011235137155123,-0.0010042532580798,0.0010042644875387,-0.0010042529122532,0.0010042641416409,0.46418183488173,122718,2924,0.0042413412082199,0.0070093701624548,0.0042413412082167,36.943925423198,0.00021075140338558,0.00021075140338558,0.00021075140338558,3273051.691089,0.015613069788066
12669200,0.99465949286814,0.015971610684388,0.0047929024115334,0.0063858058613238,0.0047929024115306,-0.0010147999593797,0.0010148083301323,4.0479454258712e-09,4.0481427622864e-09,6.2006453628309e-10,7.1052436130378e-09,-0.0011227351626456,0.0011227419610542,-0.0011227351281082,0.0011227419270504,-0.0011227329798484,0.0011227441637536,-0.0011227329730054,0.0011227441574516,-0.00099957659283091,0.00099958664999616,-0.00099957692498183,0.00099958698220503,1.5517178833191e-09,-4.6352737678329e-09,2.7012798240497e-09,-5.6900945094009e-09,-0.0016940813611829,0.0016940783660438,-0.0018537881441542,0.0018537900890162,-0.0018537906283628,0.0018537869351488,-0.0018537899083586,0.0018537876840491,-0.0018537923924864,0.001853784530144,-0.0015159651454612,0.0015159683265664,-0.0015159740114707,0.0015159607200551,-0.001515966615195,0.0015159668198601,-0.0015159733575216,0.0015159613997527,4.1818017666942e-09,4.1819990546672e-09,-0.0010147998252654,0.0010148084642451,-2.772823143921e-10,8.3138462659985e-09,-0.0011227354059725,0.0011227417493458,-0.0011227324860085,0.001122744633075,-0.0011227353622146,0.0011227417061169,-0.001122732481279,0.0011227446288842,-0.00099957643493317,0.0009995874671951,-0.00099957609057701,0.00099958712276671,0.41293325567865,122718,2924,0.0042207124561036,0.0070331362912853,0.0042207124561005,36.662552348584,0.00020850041878868,0.00020850041878868,0.00020850041878868,3190658.7774973,0.015595326652179
13169200,0.99593424241784,0.015984303339194,0.0047965216328886,0.0063912600734199,0.0047965216328858,-0.0010124522050359,0.0010124624144179,4.7614801191225e-09,4.7616781338486e-09,1.2345407375856e-09,7.9139573638584e-09,-0.0011186859159719,0.0011186942726017,-0.0011186857427878,0.0011186940999526,-0.0011186836665526,0.0011186965421052,-0.0011186835236324,0.0011186963997278,-0.00099713745619139,0.00099714908139499,-0.00099713776077588,0.00099714938603675,1.5811523208819e-09,-4.7793432648145e-09,2.7748397191395e-09,-5.8748624022216e-09,-0.001692289120645,0.0016922860141353,-0.0018539528296207,0.0018539548251393,-0.0018539552522825,0.0018539514212234,-0.0018539545058632,0.0018539521990901,-0.0018539569284451,0.0018539487951377,-0.0015123239768812,0.0015123272365087,-0.0015123330217047,0.0015123193080017,-0.001512325502149,0.0015123256715277,-0.0015123323427339,0.0015123200145806,4.9071936903659e-09,4.9073916535536e-09,-0.0010124520590817,0.0010124625603706,3.1045364750123e-10,9.1759887191016e-09,-0.0011186861625974,0.0011186940594828,-0.0011186831471473,0.0011186970355329,-0.0011186859796297,0.0011186938770456,-0.0011186830064748,0.0011186968954009,-0.00099713724531656,0.00099714989618793,-0.00099713692787778,0.00099714957867787,0.41862665455891,122718,2924,0.0042109698841827,0.0070257544866298,0.0042109698841797,35.469297330981,0.00019895437864785,0.00019895437864785,0.00019895437864785,3215937.0209389,0.015568028312257
13669200,0.99685563979448,0.015993036312187,0.0047990044854753,0.0063950273412388,0.0047990044854725,-0.0010086399097488,0.0010086501894746,4.7900860649198e-09,4.7902837744804e-09,1.1879833656847e-09,8.0245738474243e-09,-0.0011158769333847,0.001115885297237,-0.0011158767573565,0.0011158851217431,-0.0011158746337131,0.0011158876192379,-0.0011158744873764,0.0011158874734434,-0.00099325524497549,0.00099326697918432,-0.00099325555583096,0.0009932672900973,1.6408166261784e-09,-4.8770018145599e-09,2.884943579601e-09,-6.0209539762243e-09,-0.0016923775562299,0.0016923744135183,-0.0018542538776879,0.0018542559726106,-0.0018542563758188,0.0018542524763645,-0.0018542555973986,0.0018542532875188,-0.0018542580954491,0.0018542497912357,-0.0015120440970397,0.0015120475200211,-0.0015120533878048,0.0015120393345424,-0.0015120456867867,0.0015120458890557,-0.0015120526784521,0.0015120400725815,4.9392487202538e-09,4.9394463810683e-09,-0.0010086397602945,0.0010086503389273,2.19672470098e-10,9.3393450206291e-09,-0.0011158771937865,0.0011158850715291,-0.0011158740940952,0.001115888131952,-0.0011158770076619,0.0011158848859345,-0.0011158739500577,0.0011158879884543,-0.00099325502058731,0.00099326781993013,-0.00099325469666753,0.00099326749593891,0.39878502614448,122718,2924,0.0041951682428286,0.0070261031579284,0.0041951682428255,34.269928189063,0.00018935942551251,0.00018935942551251,0.00018935942551251,3194337.007785,0.015536293826643
14169200,0.99754112950116,0.015999171484112,0.0048007466672578,0.0063976781495995,0.004800746667255,-0.0010065061347301,0.0010065158395481,4.5708052196208e-09,4.5710030413321e-09,9.4223762171023e-10,7.8305728437277e-09,-0.0011133968570959,0.0011134047210623,-0.0011133967233859,0.0011134045878869,-0.0011133945426608,0.0011134070600221,-0.0011133944373641,0.0011134069552678,-0.00099106950869544,0.00099108079652494,-0.00099106983050885,0.00099108111839564,1.652098825809e-09,-4.9223567327042e-09,2.9477195094277e-09,-6.1167292584728e-09,-0.0016914813481837,0.0016914781723823,-0.0018540767164187,0.001854078842962,-0.0018540793099517,0.0018540753444002,-0.0018540784991557,0.0018540761899065,-0.0018540810926086,0.0018540726913079,-0.0015104438738372,0.0015104474030984,-0.0015104533488872,0.0015104390878682,-0.0015104455298205,0.001510445703656,-0.0015104526077573,0.0015104398592475,4.7280165583396e-09,4.7282143377093e-09,-0.0010065059772012,0.0010065159970754,-6.6828223267181e-11,9.2045770134216e-09,-0.0011133971269341,0.0011134044867522,-0.0011133939784627,0.0011134075968617,-0.0011133969827506,0.0011134043430989,-0.0011133938754627,0.0011134074944018,-0.00099106927051018,0.00099108167295775,-0.00099106893542907,0.00099108133780533,0.37657498346554,122718,2924,0.0041863157021645,0.0070224021509411,0.0041863157021614,33.391492175884,0.00018233193740707,0.00018233193740707,0.00018233193740707,3196981.319404,0.015514552933904
14669200,0.99803550219436,0.016003677313767,0.0048020304798241,0.0063996163541213,0.0048020304798213,-0.0010029520201951,0.0010029634787262,5.2526055361241e-09,5.2528033989059e-09,1.4915448313936e-09,8.648250977222e-09,-0.0011094192919437,0.0011094286000818,-0.0011094190300707,0.0011094283387435,-0.0011094168870372,0.0011094310302583,-0.0011094166557626,0.0011094307995264,-0.00098745128887766,0.00098746409883692,-0.00098745158662112,0.00098746439663744,1.7253044539862e-09,-5.0995886779193e-09,3.0747282473979e-09,-6.3442150048806e-09,-0.001688515715448,0.0016885124389107,-0.0018516856208933,0.0018516878635714,-0.0018516881918881,0.0018516840922592,-0.0018516873476606,0.001851684973024,-0.0018516899185754,0.0018516812016753,-0.0015069690824227,0.0015069727701937,-0.0015069788270886,0.0015069640348781,-0.001506970806484,0.0015069710006084,-0.0015069780547563,0.0015069648389051,5.4178833996017e-09,5.4180812032354e-09,-0.0010029518545814,0.0010029636443384,4.4154794954264e-10,1.0081541487052e-08,-0.0011094195721884,0.0011094283573498,-0.0011094162972056,0.0011094315911034,-0.0011094192993427,0.0011094280850345,-0.0011094160683706,0.0011094313628088,-0.00098745100158739,0.00098746497599274,-0.00098745069004474,0.00098746466437887,0.38326605638518,122718,2924,0.0041715718844865,0.0070101397974136,0.0041715718844834,31.614401134038,0.00016811520907231,0.00016811520907231,0.00016811520907231,3206289.2491389,0.015472154114782
15169200,0.99838155308929,0.016006351997357,0.0048027847546424,0.0064007824880746,0.0048027847546396,-0.00099620826087091,0.00099622167081191,6.0109756416511e-09,6.0111732971968e-09,2.0452191283217e-09,9.6238794590886e-09,-0.0011037168832537,0.0011037277327479,-0.0011037164842033,0.0011037273342319,-0.0011037143385697,0.0011037303052275,-0.0011037139720253,0.0011037299392254,-0.00098075830988879,0.00098077285465811,-0.00098075858039209,0.00098077312521877,1.8651462336511e-09,-5.3637017630635e-09,3.2827238222759e-09,-6.6710984359338e-09,-0.0016846659608372,0.0016846625649087,-0.0018476594236258,0.0018476618738573,-0.001847662016543,0.0018476577553159,-0.0018476611296402,0.0018476586803883,-0.0018476637224771,0.0018476545618101,-0.0015031208146122,0.0015031247683241,-0.0015031309863718,0.0015031154167669,-0.001503122624511,0.0015031229109781,-0.0015031301752541,0.0015031162609179,6.1814146411288e-09,6.1816122372541e-09,-0.0009962080900258,0.00099622184165554,9.3827364032552e-10,1.1126537405722e-08,-0.0011037171818592,0.0011037274745286,-0.0011037137206124,0.0011037308916508,-0.0011037167712713,0.0011037270644708,-0.0011037133567464,0.0011037305283246,-0.00098075796864402,0.00098077373091075,-0.00098075768367605,0.00098077344587136,0.32557930153052,122718,2924,0.004143607145369,0.00699419176063,0.004143607145366,28.833638059639,0.00014586910447711,0.00014586910447711,0.00014586910447711,3194087.1826229,0.015399173468735
15669200,0.99862737875639,0.016009285486938,0.0048036352762644,0.0064020149344124,0.0048036352762615,-0.00099198497027813,0.00099199878630616,6.181692382927e-09,6.1818904673065e-09,2.0109785018309e-09,9.9959957981899e-09,-0.0010972140061287,0.0010972251405806,-0.0010972135757095,0.0010972247106966,-0.0010972113307492,0.0010972278496611,-0.0010972109326354,0.0010972274520908,-0.00097644063462094,0.00097645566232692,-0.00097644090732273,0.00097645593508543,1.9588651752194e-09,-5.6687210488749e-09,3.465399715888e-09,-7.0585322658609e-09,-0.0016774908460878,0.0016774872448912,-0.0018417769705042,0.0018417795391799,-0.0018417797165452,0.0018417751955867,-0.001841778775061,0.0018417761790512,-0.0018417815210223,0.0018417718354216,-0.0014949662904056,0.0014949704660564,-0.0014949770208146,0.0014949605542281,-0.0014949682127221,0.0014949684920907,-0.0014949761589987,0.0014949614519803,6.3718138694454e-09,6.3720118990134e-09,-0.00099198477976027,0.00099199897682249,8.4397401134975e-10,1.1602588096874e-08,-0.001097214315897,0.0010972248750975,-0.0010972106643707,0.001097228481312,-0.0010972138729293,0.0010972244326607,-0.0010972102692407,0.0010972280867226,-0.00097644024813174,0.00097645658787244,-0.00097643995977978,0.00097645629944958,0.50031128019999,122718,2924,0.0041260643069924,0.006964545045169,0.0041260643069894,25.867627282315,0.00012214101825852,0.00012214101825852,0.00012214101825852,3244079.4005173,0.01533343373633
16169200,0.99882521529255,0.016011991521377,0.004804417626992,0.0064031562673954,0.0048044176269892,-0.00098216023278449,0.00098217034165977,4.7275215330523e-09,4.7277181600196e-09,6.8077252772136e-10,8.4434565191992e-09,-0.0010960511056646,0.001096058966465,-0.0010960509619144,0.0010960588232474,-0.001096048511083,0.0010960615965668,-0.0010960483930235,0.0010960614790475,-0.00096726903938628,0.00096728094334632,-0.00096726936709584,0.00096728127111442,2.0146847052358e-09,-5.4347249112669e-09,3.5747887119528e-09,-6.8831503956567e-09,-0.0016837196769756,0.0016837163605529,-0.0018441324404379,0.001844135169856,-0.0018441354528954,0.0018441311771015,-0.0018441344732914,0.0018441321967571,-0.0018441374856674,0.0018441282039641,-0.001503587131731,0.0015035916003119,-0.0015035979178143,0.0015035818595183,-0.0015035891256358,0.0015035895563077,-0.0015035970170498,0.0015035827952407,4.8948104450038e-09,4.8950071217601e-09,-0.00098216006479288,0.0009821705096496,-5.6962814654525e-10,1.0086160523743e-08,-0.0010960514554896,0.001096058658037,-0.0010960478479137,0.0010960622276226,-0.0010960512998567,0.0010960585029319,-0.0010960477324458,0.0010960621126923,-0.00096726871087515,0.00096728192123811,-0.0009672683690597,0.00096728157934946,0.5739046614903,122718,2924,0.0040853798449937,0.0069901541834442,0.0040853798449901,24.849705374457,0.00011399764299566,0.00011399764299566,0.00011399764299566,3089172.9190996,0.015276870147041
16669200,0.99898800864989,0.016014625128831,0.0048051858963334,0.0064042533361675,0.0048051858963305,-0.00097524724043308,0.00097525683486531,4.5178371530916e-09,4.5180341299189e-09,5.9457356449456e-10,8.1069708756634e-09,-0.0010922581186274,0.0010922655918792,-0.0010922580082048,0.0010922654819894,-0.0010922556061676,0.0010922681379246,-0.0010922555208205,0.0010922680531183,-0.00096082377138864,0.00096083516795778,-0.00096082408987975,0.00096083548650757,1.9437512489983e-09,-5.259353503743e-09,3.5476145307524e-09,-6.754203805063e-09,-0.0016860200186286,0.0016860168042542,-0.0018461048908015,0.0018461075845705,-0.0018461078862724,0.0018461036829303,-0.0018461068786724,0.001846104732408,-0.0018461098740621,0.0018461008307298,-0.0015053529540156,0.0015053574553181,-0.0015053635906465,0.0015053478686369,-0.0015053550055958,0.0015053553515696,-0.0015053626595206,0.0015053488360363,4.6858387953854e-09,4.6860358193371e-09,-0.0009752470716038,0.00097525700369298,-6.9949866720764e-10,9.7970602755032e-09,-0.0010922584818614,0.001092265268671,-0.0010922549285373,0.0010922687850543,-0.0010922583595581,0.0010922651468964,-0.0010922548455386,0.0010922687025937,-0.00096082341795624,0.00096083615239491,-0.00096082308588952,0.0009608358202554,0.67665170456045,122718,2924,0.0040567391957982,0.0069996127184012,0.0040567391957949,24.09643496195,0.0001079714796956,0.0001079714796956,0.0001079714796956,3025730.9956664,0.015228328849018
17169200,0.99912203337127,0.016016736817459,0.0048057997438303,0.0064051373298008,0.0048057997438275,-0.00096717174583082,0.00096718154304875,4.5835653611436e-09,4.5837622524574e-09,7.4639215159241e-10,8.0908536695624e-09,-0.0010879497897658,0.0010879574583242,-0.0010879496617809,0.001087957330872,-0.0010879473306556,0.0010879599483208,-0.0010879472280904,0.0010879598462963,-0.00095302654186991,0.00095303803247903,-0.000953026855728,0.0009530383463964,1.907972406135e-09,-5.1258390345184e-09,3.538010513678e-09,-6.6493205234693e-09,-0.0016889785493109,0.0016889754304803,-0.0018486872794047,0.0018486899769266,-0.0018486902147172,0.0018486860886057,-0.0018486891897848,0.0018486871559697,-0.0018486921250157,0.0018486832676101,-0.0015078397385841,0.0015078442782154,-0.0015078502402648,0.0015078347821551,-0.0015078418251163,0.0015078421388531,-0.0015078492900796,0.0015078357690662,4.7468711136841e-09,4.7470680411828e-09,-0.0009671715816023,0.00096718170727576,-5.8017703981321e-10,9.8048429083824e-09,-0.0010879501659428,0.0010879571207304,-0.0010879466493065,0.0010879606006426,-0.001087950026261,0.0010879569815773,-0.0010879465488752,0.0010879605007493,-0.00095302617927802,0.00095303901689846,-0.00095302585243189,0.00095303868997897,0.65918538309535,122718,2924,0.0040232840288107,0.0070117816094731,0.0040232840288077,23.239976904367,0.00010111981523493,0.00010111981523493,0.00010111981523493,2945408.483414,0.015172772913213
17669200,0.9992234810295,0.016018089120043,0.0048061900675169,0.0064057089850121,0.0048061900675141,-0.00095963258552703,0.00095964560626144,5.8133868416658e-09,5.8135842618568e-09,1.8703209663294e-09,9.4376854668343e-09,-0.0010792481231293,0.0010792584851754,-0.0010792477549823,0.0010792581175623,-0.0010792455857822,0.0010792610524711,-0.0010792452472013,0.0010792607144318,-0.00094529654118517,0.0009453107166914,-0.00094529681066741,0.00094531098623219,1.9473461521176e-09,-5.2775548646451e-09,3.6043036441742e-09,-6.8239764679678e-09,-0.0016846322133883,0.0016846289860243,-0.0018466199618889,0.0018466227255097,-0.0018466227100474,0.0018466184607193,-0.0018466216703474,0.0018466195454478,-0.0018466244184247,0.0018466152806196,-0.0015012431955774,0.0015012477888748,-0.0015012537741387,0.0015012379082036,-0.0015012453148054,0.0015012456141859,-0.0015012528104755,0.0015012389103474,5.9863095262943e-09,5.9865070114819e-09,-0.00095963241171122,0.00095964578007584,5.3243100712762e-10,1.118505106555e-08,-0.0010792484991626,0.0010792581497827,-0.0010792448867989,0.0010792617207409,-0.0010792481187887,0.0010792577699384,-0.001079244550511,0.0010792613849922,-0.00094529611692433,0.00094531167371611,-0.00094529583374915,0.00094531139046795,0.55812180814856,122718,2924,0.0039920081102532,0.0069938241713016,0.0039920081102504,20.727483800459,8.1019870403671e-05,8.1019870403671e-05,8.1019870403671e-05,2949729.9176234,0.015091034164039
18169200,0.99930172224287,0.016019083541589,0.0048064770888883,0.0064061293638148,0.0048064770888855,-0.00095656272466973,0.00095657576898987,5.8396103281703e-09,5.8398083442019e-09,1.7788865858462e-09,9.5673924375519e-09,-0.0010714180169734,0.0010714284504803,-0.0010714176361939,0.0010714280702359,-0.0010714154087704,0.0010714310928329,-0.0010714150575624,0.001071430742168,-0.00094170964368257,0.00094172392398173,-0.00094170994290268,0.00094172422325948,1.9637564832051e-09,-5.4758454040934e-09,3.654467783753e-09,-7.0514095026329e-09,-0.0016771798931153,0.0016771764882508,-0.0018425679257355,0.0018425706778713,-0.0018425707569595,0.0018425663114917,-0.0018425696985292,0.0018425674183938,-0.0018425725296729,0.0018425630519775,-0.001491129275981,0.0014911338927758,-0.0014911401761869,0.001491123788898,-0.0014911314368227,0.0014911316729549,-0.001491139195634,0.0014911248103899,6.0320685471229e-09,6.0322666052783e-09,-0.00095656253146517,0.00095657596219281,4.3407379399061e-10,1.1364446655018e-08,-0.0010714183857196,0.0010714281252369,-0.0010714146804939,0.0010714317881375,-0.0010714179918878,0.001071427731936,-0.0010714143317999,0.0010714314399843,-0.00094170922006135,0.00094172493971292,-0.00094170890600893,0.00094172462558852,0.53219572012244,122718,2924,0.0039792285212462,0.0069630841039129,0.003979228521243,18.291380704431,6.1531045635447e-05,6.1531045635447e-05,6.1531045635447e-05,3019202.2939576,0.015033860127728
18669200,0.99936770806461,0.016019948244176,0.0048067267427093,0.00640649475876,0.0048067267427065,-0.00095472429439131,0.00095473486335852,4.9006366018532e-09,4.9008343205499e-09,9.0830293103696e-10,8.551140651817e-09,-0.0010685928005834,0.001068601168875,-0.0010685926077439,0.0010686009765702,-0.0010685902450701,0.0010686037605991,-0.0010685900779516,0.0010686035940231,-0.00093959396268087,0.0009396062031345,-0.00093959429708449,0.00093960653759584,1.9183106293682e-09,-5.4007782508729e-09,3.6344027095508e-09,-7.0041459060916e-09,-0.0016748824859172,0.0016748791084264,-0.0018409573135259,0.0018409600050135,-0.0018409603281942,0.0018409558920586,-0.0018409592526123,0.0018409570166491,-0.0018409622672002,0.0018409529036572,-0.0014884909662336,0.0014884955931293,-0.00148850192495,0.0014884856703751,-0.0014884931613217,0.0014884933383659,-0.0014885009261865,0.0014884867106887,5.0973366159536e-09,5.0975343715446e-09,-0.00095472409698998,0.00095473506075831,-4.5941253338011e-10,1.0380209327441e-08,-0.0010685931735717,0.0010686008385467,-0.0010685895045879,0.0010686044691828,-0.0010685929676261,0.0010686006331316,-0.0010685893398067,0.0010686043049418,-0.00093959356115374,0.00093960726748595,-0.00093959321216419,0.00093960691842456,0.54899585622657,122718,2924,0.0039715843622941,0.00695359706758,0.003971584362291,17.176697866077,5.2613582928616e-05,5.2613582928616e-05,5.2613582928616e-05,3028973.1176693,0.015008710602911
19169200,0.99942651134088,0.016020921226997,0.0048070103921427,0.0064069004427147,0.0048070103921399,-0.00095292093124361,0.0009529298645438,4.2702513859168e-09,4.2704488343252e-09,4.1408227309469e-10,7.7794873300021e-09,-0.0010678479298155,0.0010678549607782,-0.001067847859695,0.0010678548911918,-0.0010678454665891,0.0010678574583824,-0.0010678454201065,0.0010678574124417,-0.00093783270126377,0.00093784351981006,-0.00093783305367054,0.00093784387227499,1.8436597687537e-09,-5.2151663291014e-09,3.5630569215862e-09,-6.826418249373e-09,-0.0016756722319501,0.0016756689611985,-0.0018413389765074,0.001841341590374,-0.0018413420438622,0.0018413377096297,-0.0018413409644441,0.0018413388373556,-0.0018413440317182,0.0018413349565739,-0.0014895823780406,0.0014895869587037,-0.0014895931640265,0.0014895773462992,-0.0014895845795883,0.0014895846980009,-0.0014895921589742,0.0014895783926226,4.4631041676872e-09,4.4633016411545e-09,-0.00095292073766925,0.00095293005811662,-9.6543653134138e-10,9.6120190441809e-09,-0.0010678483071722,0.0010678546237941,-0.0010678447290185,0.0010678581663292,-0.001067848224255,0.0010678545414068,-0.0010678446845764,0.0010678581224267,-0.00093783231942079,0.00093784460081913,-0.00093783195317561,0.0009378442345018,0.69203291028494,122718,2924,0.0039641092699969,0.0069568430971064,0.0039641092699938,16.901014201657,5.0408113613257e-05,5.0408113613257e-05,5.0408113613257e-05,3004211.6624812,0.014996838069259
19669200,0.99948397702588,0.01602182503917,0.0048072723665162,0.0064072803061401,0.0048072723665134,-0.0009493102071692,0.00094931604413426,3.0702169832029e-09,3.0704138640209e-09,-5.0132883420045e-10,6.2805700128973e-09,-0.0010701953459311,0.0010701998748416,-0.0010701954978112,0.0010702000272544,-0.0010701930757483,0.0010702021746345,-0.0010701932480236,0.0010702023474502,-0.00093474559011894,0.00093475368835629,-0.00093474597179813,0.00093475407009305,1.7051596348672e-09,-4.7998626268739e-09,3.401236098219e-09,-6.3970203457725e-09,-0.0016836617118203,0.0016836587093595,-0.0018467656491917,0.0018467681245569,-0.0018467687696521,0.001846764713462,-0.0018467677012958,0.0018467658271103,-0.0018467708216743,0.0018467624159761,-0.0014990729900864,0.0014990774523799,-0.0014990833307921,0.0014990685439917,-0.0014990751659745,0.001499075220295,-0.0014990823318941,0.0014990695821583,3.2427766680458e-09,3.2429734365788e-09,-0.00094931003375679,0.00094931621754515,-1.8886445253238e-09,8.077194041601e-09,-0.0010701957342744,0.0010701995217714,-0.0010701923655941,0.001070202859762,-0.0010701958743973,0.0010701996624241,-0.0010701925393726,0.0010702030340793,-0.00093474526315817,0.00093475477355535,-0.00093474486939224,0.00093475437971539,0.65828517643883,122718,2924,0.003949186534069,0.0069897820058216,0.003949186534066,18.192410298601,6.0739282388805e-05,6.0739282388805e-05,6.0739282388805e-05,2889300.4133319,0.015000010980044
20169200,0.9995370310432,0.016022711015272,0.0048075310699539,0.0064076488753673,0.0048075310699511,-0.00094911991157467,0.00094912734916892,3.6807574741394e-09,3.6809550630158e-09,2.2226087098369e-10,6.7758542159519e-09,-0.001068395085504,0.0010684010614324,-0.0010683951174239,0.0010684010938864,-0.0010683928846449,0.0010684032868422,-0.0010683929397749,0.0010684033425143,-0.00093450616592301,0.00093451548306959,-0.00093450652566079,0.00093451584286607,1.5973767827358e-09,-4.6641892753075e-09,3.2500227836819e-09,-6.2204134175811e-09,-0.0016840935508172,0.0016840905741591,-0.001849076179337,0.0018490785097734,-0.0018490790650888,0.0018490750629479,-0.0018490780256257,0.0018490761484031,-0.0018490809112963,0.0018490727015398,-0.0014976411854555,0.0014976454253036,-0.0014976511345971,0.0014976367761986,-0.0014976433056183,0.0014976432483196,-0.001497650161452,0.0014976377889877,3.8575266794873e-09,3.8577241630131e-09,-0.00094911973404357,0.00094912752669841,-1.1185425872918e-09,8.5349718335721e-09,-0.0010683954546896,0.0010684007261631,-0.0010683921860267,0.0010684039618546,-0.0010683954749407,0.001068400746944,-0.0010683922425075,0.0010684040188751,-0.00093450582714406,0.00093451653631175,-0.00093450545547727,0.0009345161645723,0.69745035968901,122718,2924,0.0039483961512327,0.0069916020473931,0.0039483961512295,18.642063233714,6.4336505869714e-05,6.4336505869714e-05,6.4336505869714e-05,2899553.6701012,0.015000239480649
20669200,0.99958400459574,0.016023358564612,0.0048077179600921,0.0064079226444312,0.0048077179600892,-0.00094587685729597,0.00094588563654345,4.1933359898794e-09,4.1935333432969e-09,7.3996855300173e-10,7.289911955782e-09,-0.0010665761069437,0.0010665832245988,-0.0010665760404163,0.0010665831586051,-0.0010665739034833,0.00106658544974,-0.0010665738623387,0.001066585409137,-0.00093123136048593,0.00093124176278432,-0.0009312317039344,0.00093124210629157,1.5987743400414e-09,-4.6469948102337e-09,3.2151033066833e-09,-6.1675746176526e-09,-0.0016856422936337,0.0016856393350126,-0.0018506540790198,0.0018506564071039,-0.0018506568280809,0.0018506528672664,-0.0018506558112737,0.0018506539284009,-0.0018506585602536,0.0018506503885254,-0.0014989357332443,0.0014989399051033,-0.0014989455290304,0.0014989312804431,-0.0014989378067638,0.0014989377766502,-0.0014989445782496,0.0014989322695996,4.3622570105133e-09,4.3624542559288e-09,-0.00094587668765354,0.00094588580618439,-5.743293793964e-10,9.0048551596869e-09,-0.0010665764715665,0.0010665828931824,-0.0010665732243955,0.0010665861056274,-0.0010665763936973,0.0010665828158426,-0.0010665731845796,0.0010665860663506,-0.00093123102509857,0.00093124278009053,-0.00093123066989774,0.00093124242481675,0.57704787655205,122718,2924,0.0039349617321858,0.0069979828369993,0.0039349617321828,18.409169733744,6.2473357869948e-05,6.2473357869948e-05,6.2473357869948e-05,2862766.7690482,0.014979452655115
21169200,0.999621029054,0.016023897973961,0.0048078748490874,0.0064081482757886,0.0048078748490846,-0.00094417082106545,0.00094418367580491,5.7701511986064e-09,5.7703493653551e-09,2.0529050843794e-09,9.1336605045294e-09,-0.0010596774132703,0.0010596879529045,-0.0010596770397147,0.0010596875798842,-0.0010596750291257,0.0010596903593961,-0.0010596746869217,0.0010596900177355,-0.00092916854377303,0.00092918244136715,-0.00092916885419527,0.00092918275184749,1.7112979422578e-09,-5.0200666599683e-09,3.3117347306596e-09,-6.5167101521546e-09,-0.0016778513905431,0.0016778481789439,-0.0018461043494112,0.0018461067759776,-0.0018461069133174,0.001846102714979,-0.0018461059101991,0.001846103764106,-0.0018461084740251,0.0018460997030709,-0.0014886307561991,0.0014886349373763,-0.0014886408302354,0.0014886257311271,-0.0014886328050728,0.0014886328320423,-0.0014886398971467,0.0014886267036008,5.9536576206406e-09,5.9538556716785e-09,-0.00094417063705344,0.00094418385981529,7.7812478111618e-10,1.0839936541769e-08,-0.0010596777590918,0.001059687644311,-0.0010596743415511,0.0010596910200251,-0.00105967737346,0.0010596872592103,-0.0010596740011334,0.0010596906801486,-0.00092916816830785,0.00092918343228261,-0.00092916784452521,0.00092918310842841,0.60887185432547,122718,2924,0.0039278430324067,0.0069658499896103,0.0039278430324034,16.14706824191,4.4376545935279e-05,4.4376545935279e-05,4.4376545935279e-05,2946508.1534505,0.014932358650615
21669200,0.99965143488806,0.016024353929468,0.0048080071865779,0.0064083395563146,0.004808007186575,-0.00093912758265505,0.00093913950471038,5.4187115207977e-09,5.4189090124912e-09,1.5963871540877e-09,8.900411571536e-09,-0.0010565371688673,0.0010565468050672,-0.0010565368761963,0.0010565465129304,-0.0010565347161751,0.0010565492846479,-0.0010565344524262,0.0010565490214412,-0.00092405066676646,0.00092406389146934,-0.000924050993346,0.00092406421810728,1.811398007446e-09,-5.1563632640241e-09,3.42030440346e-09,-6.6591016273692e-09,-0.0016763870051416,0.0016763837593592,-0.0018437725423296,0.0018437750816734,-0.0018437752689383,0.0018437710311342,-0.0018437742594983,0.0018437720851409,-0.001843776986026,0.0018437680345641,-0.0014879332612575,0.0014879375806672,-0.0014879436146851,0.0014879281572144,-0.0014879353204775,0.0014879354664428,-0.0014879426781578,0.001487929132194,5.5948549081701e-09,5.5950522870815e-09,-0.00093912740597763,0.0009391396813863,3.0618090038366e-10,1.0605849212495e-08,-0.0010565375253012,0.0010565464869944,-0.0010565340318024,0.0010565499407646,-0.0010565372205932,0.0010565461828164,-0.0010565337699783,0.0010565496794801,-0.00092405031210425,0.00092406489383267,-0.00092404997199229,0.00092406455364819,0.62733776249129,122718,2924,0.0039069284147062,0.0069597533042408,0.0039069284147032,14.401196970658,3.0409575765266e-05,3.0409575765266e-05,3.0409575765266e-05,2914467.7735904,0.014883732707681
22169200,0.99967943521943,0.016024749525633,0.0048081217105343,0.0064085061045677,0.0048081217105315,-0.00093777507796301,0.00093778439347324,4.4291545278051e-09,4.4293519689895e-09,6.382498878011e-10,7.9074355753299e-09,-0.0010559033661658,0.0010559107234042,-0.0010559030739308,0.0010559104317032,-0.0010559009262725,0.0010559131902432,-0.0010559006628935,0.0010559129274061,-0.0009228837556682,0.0009228947319242,-0.00092288408034104,0.00092289505665549,1.8216159985287e-09,-5.1627924280293e-09,3.431787563128e-09,-6.6666520516501e-09,-0.0016770982573573,0.0016770950154674,-0.0018443547865493,0.0018443573412623,-0.0018443575183937,0.0018443532836043,-0.0018443565080298,0.0018443543383789,-0.0018443592397931,0.0018443502806833,-0.0014887127423984,0.001488717078963,-0.0014887231137943,0.0014887076360422,-0.0014887148031187,0.0014887149632164,-0.0014887221765894,0.001488708611712,4.6032752141756e-09,4.603472540265e-09,-0.00093777490329075,0.00093778456814397,-6.5535704111578e-10,9.6121342425385e-09,-0.0010559037250203,0.0010559104028917,-0.0010559002433847,0.0010559138448893,-0.0010559034207602,0.0010559100991613,-0.0010558999819233,0.0010559135839674,-0.00092288340065456,0.00092289573084561,-0.00092288306245205,0.00092289539257062,0.59113433267245,122718,2924,0.0039013202712624,0.0069626781748082,0.0039013202712593,14.421127758646,3.0569022069164e-05,3.0569022069164e-05,3.0569022069164e-05,2884340.0033241,0.014875321479017
22669200,0.99970643840407,0.016025169629822,0.0048082441727806,0.0064086812842637,0.0048082441727778,-0.00093971470719895,0.00093972165095,3.5011345051044e-09,3.5013322375422e-09,-9.4152406723309e-11,6.7349761323964e-09,-0.001056746936928,0.0010567524282736,-0.0010567470071998,0.0010567524990799,-0.0010567446493996,0.001056754745148,-0.0010567447415367,0.0010567548378277,-0.00092469342475091,0.00092470244660321,-0.000924693800258,0.00092470282216863,1.6640538077984e-09,-4.877339257016e-09,3.2639063127261e-09,-6.376672050693e-09,-0.0016783070591132,0.0016783039397828,-0.0018463371059035,0.0018463394363327,-0.0018463400875677,0.0018463359795191,-0.0018463390830262,0.0018463370289755,-0.0018463420646096,0.0018463335721248,-0.0014891578871845,0.0014891620611591,-0.0014891680374483,0.0014891532766582,-0.001489159937254,0.0014891599555889,-0.0014891671020647,0.0014891542508508,3.6791623355573e-09,3.6793599428e-09,-0.00093971452866995,0.00093972182947746,-1.3780925316897e-09,8.4383449984767e-09,-0.0010567472879975,0.0010567521129816,-0.0010567439670028,0.0010567554019874,-0.0010567473464611,0.0010567521719754,-0.0010567440607208,0.0010567554962454,-0.00092469311907407,0.00092470349837227,-0.00092469273069415,0.00092470310992023,0.65005588799907,122718,2924,0.0039093580761952,0.0069677043073869,0.0039093580761921,15.215222090896,3.6921776727169e-05,3.6921776727169e-05,3.6921776727169e-05,2906302.7407957,0.014896730016231
23169200,0.99973158597988,0.016025540541312,0.0048083517993989,0.0064088369425174,0.0048083517993961,-0.00093773748676407,0.00093774516265323,3.7752387402428e-09,3.7754360803482e-09,1.8349587947941e-10,6.998394148098e-09,-0.0010566737094155,0.0010566798352191,-0.0010566737799745,0.0010566799063115,-0.0010566714254908,0.0010566821475506,-0.0010566715180177,0.0010566822406189,-0.00092292882733518,0.00092293846788248,-0.00092292920166347,0.00092293884226916,1.6724901746909e-09,-4.8410418651705e-09,3.2700033506423e-09,-6.3387702458613e-09,-0.0016803774237354,0.0016803743483945,-0.0018480181450754,0.0018480204999306,-0.0018480211167091,0.0018480170534635,-0.0018480201130089,0.0018480181013935,-0.0018480230845615,0.0018480146548887,-0.0014915237812149,0.0014915279772465,-0.0014915338965911,0.0014915192201878,-0.001491525828391,0.0014915258747301,-0.00149153296202,0.0014915201934646,3.9455530181813e-09,3.9457502267008e-09,-0.00093773731586946,0.00093774533354624,-1.1075389082113e-09,8.6927057925228e-09,-0.0010566740671948,0.0010566795126426,-0.0010566707511515,0.0010566827968488,-0.0010566741260731,0.00105667957205,-0.0010566708451902,0.0010566828914263,-0.00092292852852893,0.00092293951049958,-0.00092292814151698,0.0009229391234154,0.61684647976233,122718,2924,0.0039011771813085,0.0069762289740093,0.0039011771813053,15.49789310163,3.9183144813043e-05,3.9183144813043e-05,3.9183144813043e-05,2840324.8114761,0.014888788710161
23669200,0.9997557696731,0.016025924366227,0.0048084638743805,0.006408996617469,0.0048084638743777,-0.00093934483318723,0.00093935162034576,3.4358080479299e-09,3.4360057323616e-09,-3.0193674920133e-12,6.5068941409682e-09,-0.0010577797124369,0.0010577851647988,-0.0010577797907981,0.0010577852436944,-0.0010577775267347,0.001057787375063,-0.0010577776275461,0.0010577874764167,-0.00092441352873103,0.00092442231053116,-0.0009244139039705,0.00092442268582911,1.5659994300865e-09,-4.6576661884069e-09,3.1328047422597e-09,-6.1287692711881e-09,-0.0016823113019074,0.0016823082998514,-0.0018502467945368,0.0018502490127243,-0.0018502496651253,0.0018502456936142,-0.0018502486805267,0.00185024672194,-0.0018502515510342,0.0018502434027924,-0.0014929575021458,0.0014929615260664,-0.0014929672895751,0.0014929531230737,-0.0014929595115115,0.0014929594624447,-0.001492966370859,0.0014929540797608,3.6071425178604e-09,3.6073400752516e-09,-0.0009393446613566,0.00093935179217485,-1.2657202042931e-09,8.174270670063e-09,-0.0010577800583562,0.0010577848519904,-0.0010577768622741,0.0010577880164258,-0.0010577801253937,0.0010577849195581,-0.0010577769643888,0.0010577881190804,-0.0009244132394286,0.00092442334566207,-0.00092441285208465,0.00092442295824577,0.66280793596374,122718,2924,0.0039078445663162,0.0069842449161842,0.0039078445663131,16.353863861896,4.6030910895166e-05,4.6030910895166e-05,4.6030910895166e-05,2866546.7132256,0.014910451571624
24169200,0.99977948821955,0.01602629917893,0.0048085731257867,0.0064091529273594,0.0048085731257838,-0.00093965463100098,0.00093966051325451,3.0823601282731e-09,3.0825575084436e-09,-1.9613922399311e-10,5.9861813590333e-09,-0.0010600917967864,0.0010600965655069,-0.001060091937538,0.0010600967067922,-0.0010600897175017,0.0010600986656065,-0.001060089880227,0.0010600988288734,-0.00092478857948732,0.00092479650924482,-0.00092478896200709,0.00092479689182346,1.4731899642637e-09,-4.4318167676869e-09,2.9946102529477e-09,-5.8625454433786e-09,-0.0016867220026203,0.0016867191290386,-0.001853905581766,0.0018539076824314,-0.0018539083920736,0.001853904576008,-0.0018539074347671,0.0018539055749038,-0.0018539102449935,0.0018539024684424,-0.0014978317786914,0.0014978356419617,-0.0014978412100085,0.001497827674144,-0.0014978337317074,0.0014978336370211,-0.0014978403155607,0.0014978286049821,3.2430448360446e-09,3.2432420712251e-09,-0.00093965446981901,0.0009396606744349,-1.4303550581054e-09,7.6012706746909e-09,-0.0010600921373687,0.0010600962552322,-0.0010600890785186,0.0010600992839124,-0.0010600922674305,0.0010600963858235,-0.001060089242296,0.0010600994482289,-0.00092478832197399,0.00092479752744241,-0.00092478792818655,0.00092479713358224,0.66017703338317,122718,2924,0.0039091517328298,0.0070024550970645,0.0039091517328266,17.643407046615,5.6347256372922e-05,5.6347256372922e-05,5.6347256372922e-05,2822162.9467622,0.014931598537515
24669200,0.99980149613829,0.016026685934709,0.0048086865677146,0.006409312799283,0.0048086865677118,-0.00093958833235506,0.00093959580200584,3.6919249863215e-09,3.6921225425547e-09,4.3129124786865e-10,6.579826974626e-09,-0.0010599365033756,0.0010599426475659,-0.001059936527525,0.0010599426722496,-0.0010599344306434,0.0010599447377311,-0.0010599344794291,0.0010599447870589,-0.00092473551889834,0.00092474472948305,-0.00092473587821186,0.00092474508885535,1.4522284202127e-09,-4.4036816298431e-09,2.9352854909843e-09,-5.7967124174147e-09,-0.0016880174515225,0.0016880145845962,-0.0018556942561817,0.0018556963228208,-0.0018556969002151,0.0018556931158051,-0.0018556959675621,0.001855694089172,-0.0018556986115143,0.0018556908821185,-0.0014985721669105,0.0014985759242054,-0.0014985814007982,0.0014985680110408,-0.0014985740703611,0.0014985739698719,-0.0014985805301899,0.0014985689172962,3.8495947596843e-09,3.8497921659478e-09,-0.00093958817424213,0.00093959596011722,-7.6870050384491e-10,8.1535638738795e-09,-0.0010599368338877,0.0010599423467495,-0.0010599338075327,0.0010599453405927,-0.001059936847549,0.0010599423609407,-0.0010599338573528,0.0010599453909523,-0.00092473525386666,0.00092474570880001,-0.00092473488335399,0.00092474533821467,0.7331187590144,122718,2924,0.003908884411218,0.0070078170222167,0.0039088844112149,18.11811183918,6.0144894713436e-05,6.0144894713436e-05,6.0144894713436e-05,2814328.615009,0.014936495730014
25169200,0.99982246414998,0.016027025319414,0.0048087855815117,0.006409454156393,0.0048087855815089,-0.00093819015890045,0.0009381966218721,3.3024976313136e-09,3.3026948858528e-09,7.3728028613379e-11,6.1653800649888e-09,-0.0010610769680746,0.0010610822523256,-0.0010610770541517,0.0010610823389363,-0.0010610749149303,0.0010610843230538,-0.0010610750246707,0.0010610844333356,-0.00092347263194166,0.00092348096852234,-0.00092347303235073,0.00092348136899067,1.4501835646817e-09,-4.3588682077448e-09,2.9184128917836e-09,-5.737989892171e-09,-0.0016925365089107,0.0016925336838716,-0.0018595618849769,0.0018595639460368,-0.0018595645693706,0.0018595608357856,-0.0018595636454273,0.0018595617992658,-0.0018595663297394,0.0018595586889763,-0.0015034081054432,0.0015034118474472,-0.0015034173236654,0.00150340406575,-0.0015034099901882,0.0015034099128649,-0.0015034164616249,0.0015034049627517,3.4522450038878e-09,3.4524421023519e-09,-0.00093819000866682,0.00093819677210426,-1.121332337508e-09,7.7171015054262e-09,-0.0010610773013489,0.0010610819480864,-0.0010610743041269,0.001061084914078,-0.0010610773771884,0.0010610820244549,-0.0010610744148421,0.0010610850253319,-0.00092347242044059,0.00092348197655169,-0.00092347200909122,0.00092348156512927,0.6758486617238,122718,2924,0.0039031135721826,0.0070264615784369,0.0039031135721797,19.114615399613,6.8116923196903e-05,6.8116923196903e-05,6.8116923196903e-05,2753960.844595,0.014943719574751
25669200,0.99984298754567,0.016027393289249,0.0048088937889489,0.0064096057113544,0.0048088937889461,-0.00094201556547427,0.00094202078804448,2.8257817381311e-09,2.825979510628e-09,-2.8475359509078e-10,5.5511576051221e-09,-0.0010626842212291,0.0010626885370842,-0.0010626844058438,0.0010626887222333,-0.0010626822540674,0.0010626905211579,-0.0010626824605923,0.0010626907282252,-0.00092715232877628,0.00092715960222902,-0.00092715271931039,0.00092715999282186,1.3538703489843e-09,-4.2108648180291e-09,2.7750776457534e-09,-5.5459166377007e-09,-0.0016943514546072,0.0016943486786175,-0.0018628900426629,0.0018628919474237,-0.0018628927328503,0.0018628890781502,-0.0018628918391992,0.0018628900111051,-0.0018628945293055,0.001862887141794,-0.0015038459037299,0.0015038494518995,-0.0015038548511865,0.0015038420515959,-0.0015038477287415,0.0015038475776664,-0.0015038540168135,0.0015038429204496,2.9774889264042e-09,2.9776865452053e-09,-0.0009420154134009,0.00094202094011629,-1.4334261287569e-09,7.0598650387311e-09,-0.0010626845365446,0.001062688249301,-0.0010626816576593,0.0010626910991868,-0.0010626847111459,0.0010626884244325,-0.0010626818650368,0.0010626913071043,-0.0009271521206838,0.00092716058738244,-0.00092715171942126,0.00092716018604752,0.74726429722615,122718,2924,0.0039189692072033,0.007034018298034,0.0039189692072001,20.727370785127,8.1018966281016e-05,8.1018966281016e-05,8.1018966281016e-05,2780765.7874984,0.014983559034661
26169200,0.99986098166433,0.016027710457606,0.0048089867483874,0.0064097369608343,0.0048089867483846,-0.00093857436826225,0.00093858301889724,4.1397346470217e-09,4.1399319688113e-09,9.6742014763297e-10,6.916140177665e-09,-0.0010617936627499,0.001061800896511,-0.0010617936361575,0.0010618008704527,-0.0010617916532326,0.0010618029193552,-0.0010617916522834,0.0010618029189476,-0.00092377054417045,0.00092378073734224,-0.00092377081353454,0.0009237810067649,1.3919635290873e-09,-4.2533891664394e-09,2.7913342651248e-09,-5.5660251819867e-09,-0.001696639286775,0.00169663650692,-0.0018644645812611,0.0018644665452579,-0.0018644670576719,0.0018644634133458,-0.0018644661773778,0.0018644643312788,-0.0018644686537069,0.0018644611993286,-0.0015065851505386,0.0015065886974991,-0.001506593932799,0.0015065810669412,-0.0015065869470893,0.0015065868533011,-0.0015065931126027,0.0015065819205786,4.2822516389019e-09,4.2824487643504e-09,-0.00093857422534923,0.0009385831618088,-1.6951569276489e-10,8.3929047207351e-09,-0.0010617939796699,0.0010618006069418,-0.001061791072631,0.0010618034815037,-0.0010617939433075,0.0010618005711086,-0.0010617910725473,0.0010618034819595,-0.00092377023129794,0.00092378158487795,-0.00092376995130514,0.00092378130481219,0.73527505403772,122718,2924,0.003904726686235,0.0070434310225201,0.0039047266862321,20.570383264668,7.9763066117343e-05,7.9763066117343e-05,7.9763066117343e-05,2724217.4178835,0.0149642178904
26669200,0.99987706731968,0.016028008507227,0.0048090744568556,0.0064098595935184,0.0048090744568527,-0.00093802382244033,0.0009380320671517,3.9928023649061e-09,3.9929999475218e-09,8.2275776287577e-10,6.7789540119611e-09,-0.0010610155582008,0.0010610224253993,-0.001061015506175,0.0010610223739081,-0.0010610135455481,0.0010610244509225,-0.0010610135198368,0.0010610244257536,-0.00092329049276289,0.00092330031494185,-0.00092329077117403,0.00092330059341207,1.3923529072215e-09,-4.2680305647136e-09,2.7889164527521e-09,-5.5775796995923e-09,-0.0016969587138127,0.0016969559200056,-0.0018649605079592,0.0018649624705536,-0.0018649629572875,0.0018649593011276,-0.001864962079024,0.0018649602171158,-0.0018649645282709,0.0018649570476519,-0.0015066893098483,0.0015066928451179,-0.0015066980931039,0.0015066851995018,-0.0015066911027184,0.0015066910048051,-0.0015066972749035,0.0015066860510062,4.1370262075127e-09,4.1372235931591e-09,-0.00093802367786481,0.00093803221172571,-3.0903975781224e-10,8.2541169111571e-09,-0.0010610158724904,0.0010610221385583,-0.001061012964365,0.0010610250135184,-0.0010610158107054,0.0010610220773033,-0.0010610129395445,0.0010610249892378,-0.00092329018836433,0.00092330117207927,-0.00092328989928151,0.00092330088292329,0.77206574188107,122718,2924,0.0039024406292611,0.0070447556791741,0.0039024406292581,20.743644558263,8.1149156466105e-05,8.1149156466105e-05,8.1149156466105e-05,2722382.8597792,0.014960917211507
27169200,0.99989216850598,0.016028261574311,0.0048091485414371,0.0064099644914396,0.0048091485414343,-0.00093801164469263,0.00093801791179864,3.2258175124525e-09,3.2260149361572e-09,1.1521679051496e-10,5.9563314116346e-09,-0.001062148225044,0.0010621534322405,-0.001062148332176,0.0010621535399062,-0.0010621462529795,0.0010621554186823,-0.0010621463838645,0.001062155550109,-0.00092322311695531,0.00092323123935651,-0.00092322349453025,0.0009232316169907,1.3633270105309e-09,-4.1965419333481e-09,2.7220410226917e-09,-5.4697063554019e-09,-0.0017008309246632,0.0017008281719523,-0.0018690488119065,0.001869050706835,-0.0018690513758242,0.0018690477846851,-0.0018690505212351,0.0018690486756811,-0.0018690530850714,0.0018690457534931,-0.001510049089042,0.0015100525312755,-0.0015100578580152,0.0015100452106496,-0.0015100508335686,0.0015100507407305,-0.0015100570627251,0.0015100460382311,3.3638040538599e-09,3.364001295496e-09,-0.00093801150639107,0.00093801805009864,-9.876605102082e-10,7.3884469763584e-09,-0.0010621485328409,0.0010621531510596,-0.0010621456901862,0.0010621559634758,-0.0010621486304985,0.0010621532492468,-0.0010621458219223,0.0010621560957512,-0.0009232229300474,0.00092323217746734,-0.00092322254196636,0.00092323178931323,0.69895669708266,122718,2924,0.0039024060357762,0.0070607565291276,0.003902406035773,21.833749838886,8.9869998711091e-05,8.9869998711091e-05,8.9869998711091e-05,2690745.5609073,0.014977094219862
27669200,0.99990596434797,0.016028504040561,0.0048092198691052,0.0064100643023537,0.0048092198691024,-0.00094089050423226,0.00094089745043385,3.4875346831763e-09,3.4877325594198e-09,3.7649487023905e-10,6.2160836953218e-09,-0.0010620622305514,0.0010620680338722,-0.0010620622868599,0.0010620680907158,-0.0010620602571673,0.0010620700205205,-0.0010620603384391,0.0010620701023351,-0.00092588315197176,0.00092589182791358,-0.00092588352200248,0.00092589219800329,1.3450440446512e-09,-4.2060171223582e-09,2.6679276271717e-09,-5.4431030138216e-09,-0.0017004423038064,0.001700439523636,-0.0018705751713272,0.0018705770171592,-0.001870577655919,0.0018705740613243,-0.001870576825012,0.0018705749284799,-0.0018705793095227,0.0018705719726076,-0.001508146806548,0.0015081501423083,-0.0015081554722457,0.0015081428795524,-0.0015081485043216,0.0015081483988421,-0.0015081547002432,0.0015081436835989,3.6279856152651e-09,3.628183310608e-09,-0.00094089036357506,0.00094089759108956,-6.8779985471598e-10,7.6141895600664e-09,-0.0010620625239335,0.0010620677671176,-0.0010620597042768,0.0010620705553641,-0.0010620625707693,0.0010620678144838,-0.0010620597864339,0.0010620706380615,-0.00092588296720109,0.00092589274883293,-0.00092588258643224,0.00092589236799149,0.73221464578091,122718,2924,0.0039143292861152,0.0070592093884416,0.0039143292861121,22.584574800905,9.5876598407237e-05,9.5876598407237e-05,9.5876598407237e-05,2728255.0090841,0.014999709686436
28169200,0.99991840007544,0.016028738887544,0.0048092890286883,0.00641016083017,0.0048092890286855,-0.00094064373555718,0.00094065094785166,3.589586014398e-09,3.5897835055434e-09,4.6797673236551e-10,6.3329711306673e-09,-0.0010632996480908,0.0010633056651083,-0.0010632996858421,0.0010633057033936,-0.0010632976656661,0.0010633076602873,-0.0010632977288336,0.0010633077239968,-0.00092560267977702,0.00092561157948651,-0.0009256030474586,0.00092561194722719,1.3604148864943e-09,-4.2141341523002e-09,2.6538909801581e-09,-5.4218942275002e-09,-0.0017030452186791,0.0017030424456764,-0.0018725458586673,0.0018725477102615,-0.0018725483104254,0.0018725447418694,-0.001872547497644,0.0018725455891953,-0.0018725499493207,0.0018725426207651,-0.0015112618587152,0.001511265158279,-0.0015112704738418,0.0015112579154379,-0.0015112635186362,0.0015112634545234,-0.0015112697203662,0.0015112586997046,3.7228691818137e-09,3.7230664990064e-09,-0.000940643602084,0.00094065108132323,-5.7567718980995e-10,7.6941323636095e-09,-0.0010632999387045,0.0010633054008391,-0.0010632971290355,0.001063308178863,-0.0010632999672472,0.0010633054299116,-0.0010632971931146,0.0010633082434817,-0.00092560250940004,0.00092561248133082,-0.00092560213107344,0.00092561210293142,0.78687593944957,122718,2924,0.0039133212105373,0.0070699486626057,0.003913321210534,23.201970533336,0.00010081576426669,0.00010081576426669,0.00010081576426669,2695973.810947,0.015008574043117
28669200,0.99992946871535,0.016028957644719,0.004809353562207,0.0064102505203078,0.0048093535622042,-0.0009389788242666,0.00093898632455977,3.6996124828451e-09,3.6998098348977e-09,5.5894570092891e-10,6.466347629401e-09,-0.0010637063635388,0.0010637126052537,-0.0010637063814724,0.001063712623721,-0.0010637043667827,0.0010637146146397,-0.0010637044104793,0.0010637146588782,-0.00092411397548718,0.00092412312310859,-0.00092411433870417,0.00092412348638497,1.3810738669649e-09,-4.233544114898e-09,2.6558587981603e-09,-5.4222709591089e-09,-0.0017059716986191,0.0017059689271728,-0.0018747655323706,0.001874767401938,-0.001874767961735,0.0018747644069269,-0.0018747671605977,0.0018747652415383,-0.0018747695898805,0.0018747622464889,-0.001514516778708,0.0015145200679803,-0.0015145253776166,0.001514512805455,-0.0015145184143166,0.0015145183896767,-0.0015145246362846,0.0015145135767836,3.8275325848304e-09,3.8277297630273e-09,-0.0009389786961549,0.00093898645266987,-4.7200966222294e-10,7.8028998452374e-09,-0.0010637066532139,0.0010637123418699,-0.0010637038412309,0.0010637151219868,-0.0010637066621095,0.0010637123512952,-0.0010637038858715,0.0010637151671666,-0.00092411381216555,0.00092412400895459,-0.00092411343834004,0.000924123635056,0.82304252016441,122718,2924,0.0039064387723923,0.0070820129527228,0.0039064387723891,23.679336614786,0.00010463469291829,0.00010463469291829,0.00010463469291829,2652980.921795,0.015006858973491
29169200,0.99993939590897,0.016029133121664,0.0048094051112887,0.0064103228990895,0.0048094051112859,-0.00093804350277969,0.00093805056028146,3.5289644298715e-09,3.5291618201651e-09,3.9454805743613e-10,6.2881681540734e-09,-0.0010639413045091,0.0010639471696624,-0.0010639413541564,0.0010639472198435,-0.0010639393132951,0.001063949174024,-0.0010639393880638,0.0010639492493344,-0.00092328636612998,0.00092329514784353,-0.00092328673502646,0.00092329551679954,1.3803781176607e-09,-4.2244871469351e-09,2.6400436175385e-09,-5.3981948669111e-09,-0.0017087686082053,0.0017087658450261,-0.0018775173592086,0.0018775192162525,-0.0018775198107849,0.0018775162740679,-0.0018775190192609,0.0018775170985653,-0.0018775214707554,0.0018775141563425,-0.0015170685490574,0.0015170718122339,-0.0015170771306618,0.0015170646090949,-0.0015170701651226,0.0015170701540461,-0.0015170763989269,0.0015170653704112,3.654158915924e-09,3.6543561430459e-09,-0.00093804337740475,0.00093805068565484,-6.2454056844963e-10,7.6068189564043e-09,-0.0010639415918211,0.0010639469084623,-0.0010639387953263,0.0010639496738549,-0.0010639416325424,0.001063946949713,-0.0010639388710399,0.0010639497501077,-0.00092328621617651,0.00092329603171686,-0.00092328583670292,0.00092329565217008,0.73640731188204,122718,2924,0.0039025757740889,0.007093559978574,0.0039025757740857,24.380101293229,0.00011024081034583,0.00011024081034583,0.00011024081034583,2621899.6530093,0.01501074214542
29669200,0.99994827507712,0.016029266585125,0.0048094441314949,0.0064103783221382,0.0048094441314921,-0.00094124162415807,0.00094124856149845,3.4850891968879e-09,3.4852870996186e-09,3.5568705601562e-10,6.232949248973e-09,-0.0010637203277492,0.0010637261133741,-0.0010637203845897,0.0010637261707497,-0.001063718342139,0.0010637281123731,-0.0010637184240588,0.0010637281948357,-0.00092622736373926,0.00092623604619392,-0.0009262277353857,0.00092623641789943,1.3578728492989e-09,-4.2306979047596e-09,2.6009431009736e-09,-5.3875022595041e-09,-0.0017080978344279,0.0017080950428655,-0.0018790465085293,0.0018790483151271,-0.0018790489552015,0.0018790454015774,-0.0018790481751288,0.0018790462151276,-0.00187905062172,0.0018790433015402,-0.0015146535213348,0.0015146567129249,-0.0015146620708414,0.001514649574857,-0.0015146551156221,0.0015146550761068,-0.0015146613502033,0.0015146503253331,3.6147897025676e-09,3.614987432233e-09,-0.00094124149436206,0.00094124869129302,-6.4145938991478e-10,7.5391023121426e-09,-0.0010637206051069,0.0010637258623027,-0.0010637178257704,0.001063728610511,-0.0010637206529169,0.0010637259106434,-0.0010637179086579,0.001063728693939,-0.0009262272178133,0.00092623693156834,-0.00092622683534033,0.00092623654902271,0.62657858074154,122718,2924,0.0039158177946784,0.0070908558252632,0.0039158177946755,25.150038246971,0.00011640030597577,0.00011640030597577,0.00011640030597577,2666389.2979813,0.015034858188912
30169200,0.99995610291024,0.016029382979439,0.0048094782171518,0.006410426545138,0.004809478217149,-0.00094618326878289,0.0009461905123998,3.6064821475673e-09,3.6066803213214e-09,4.5896350860486e-10,6.3683805397577e-09,-0.0010644816745889,0.0010644877357161,-0.0010644817080038,0.0010644877696669,-0.0010644796776423,0.0010644897459108,-0.0010644797367756,0.0010644898055879,-0.00093078664788198,0.00093079559478027,-0.00093078701969981,0.00093079596665642,1.3491600701448e-09,-4.2676011438909e-09,2.5755716792884e-09,-5.4071407667377e-09,-0.0017061794571073,0.0017061766205365,-0.0018790686274152,0.0018790704005437,-0.0018790710497335,0.001879067462596,-0.0018790702808586,0.001879068265037,-0.0018790727030964,0.0018790653270522,-0.001511548138659,0.0015115512689844,-0.001511556680283,0.0015115441354516,-0.0015115497110984,0.0015115496540272,-0.0015115559709434,0.0015115448746454,3.7406627135718e-09,3.740860704538e-09,-0.00094618313461285,0.00094619064656841,-5.1626783748959e-10,7.6615627635764e-09,-0.0010644819420377,0.0010644874948897,-0.0010644791627801,0.0010644902422589,-0.0010644819663185,0.0010644875197017,-0.0010644792229326,0.0010644903029527,-0.0009307865034875,0.00093079647898679,-0.00093078612054047,0.00093079609596783,0.61984470894014,122718,2924,0.0039362810188223,0.0070830039950418,0.0039362810188194,25.778565855787,0.0001214285268463,0.0001214285268463,0.0001214285268463,2732222.4846386,0.015068409577203
30669200,0.99996303849443,0.016029486413724,0.0048095084785472,0.0064104694566328,0.0048095084785444,-0.00094854567054919,0.00094855245311921,3.4286059204298e-09,3.4288036651767e-09,3.0042035227438e-10,6.1728439738538e-09,-0.0010673878723387,0.0010673935354218,-0.0010673879412352,0.0010673936048532,-0.0010673858883291,0.0010673955327049,-0.0010673859822952,0.0010673956272137,-0.00093302787782067,0.00093303643707958,-0.00093302825295329,0.00093303681227078,1.3456172138766e-09,-4.2398497236189e-09,2.5570088963099e-09,-5.3652483854623e-09,-0.0017079007029473,0.0017078978897327,-0.0018800423503561,0.0018800441113574,-0.0018800447905668,0.0018800412358309,-0.0018800440304963,0.0018800420283107,-0.0018800464706261,0.0018800391527467,-0.0015141755433504,0.0015141786496851,-0.0015141840408712,0.0015141715891524,-0.0015141770969034,0.0015141770548203,-0.0015141833402282,0.001514172318855,3.5583455920729e-09,3.5585431657872e-09,-0.00094854554081786,0.00094855258284901,-6.6611617790212e-10,7.4471198738911e-09,-0.0010673881391004,0.001067393294805,-0.0010673853824146,0.0010673960204205,-0.0010673881990509,0.001067393355286,-0.0010673854773735,0.0010673961159198,-0.00093302774582986,0.000933037315584,-0.00093302735974874,0.00093303692943056,0.62208505963675,122718,2924,0.0039460824455953,0.0070901142290271,0.0039460824455922,26.623983274857,0.00012819186619886,0.00012819186619886,0.00012819186619886,2723142.0162972,0.015095531817721
31169200,0.99996921037497,0.016029596959751,0.0048095410885317,0.0064105147826902,0.0048095410885289,-0.00095073918594727,0.00095074541703727,3.2140440212808e-09,3.2142416637222e-09,1.3298164289547e-10,5.909860865219e-09,-0.0010703184074515,0.0010703236159553,-0.0010703185164691,0.0010703237255075,-0.0010703164553605,0.0010703255807907,-0.0010703165888145,0.0010703257147872,-0.00093531882598198,0.00093532690209831,-0.00093531920500729,0.00093532728118234,1.3208874475011e-09,-4.1748983446037e-09,2.5154337786365e-09,-5.2848753523327e-09,-0.001710313888196,0.0017103111138758,-0.001881760210807,0.001881761935426,-0.0018817626551988,0.0018817591495232,-0.0018817619053208,0.0018817599309879,-0.0018817643496315,0.0018817571450475,-0.0015172001298097,0.0015172031868261,-0.001517208529493,0.0015171962659678,-0.0015172016622204,0.0015172016139542,-0.0015172078382878,0.0015171969856465,3.3402906427961e-09,3.3404881183663e-09,-0.00095073905970279,0.00095074554328021,-8.2218621077563e-10,7.1648517499748e-09,-0.0010703186718616,0.0010703233769116,-0.0010703159583259,0.0010703260602698,-0.0010703187721303,0.0010703234777104,-0.0010703160927108,0.0010703261951947,-0.00093531870658294,0.00093532777588334,-0.00093531831685209,0.00093532738607996,0.74610372437603,122718,2924,0.0039551894207033,0.0071000820016513,0.0039551894207002,27.72691685833,0.00013701533486664,0.00013701533486664,0.00013701533486664,2710042.98816,0.01512414370125
31669200,0.99997472246944,0.016029683470478,0.004809566416672,0.0064105506371365,0.0048095664166692,-0.00094918365237684,0.00094918918701227,2.9419135337356e-09,2.942110691523e-09,-7.112703242313e-11,5.5689694009251e-09,-0.0010738150383833,0.0010738196779496,-0.0010738151959892,0.0010738198360888,-0.0010738131315624,0.0010738215963643,-0.0010738133128684,0.0010738217782118,-0.00093418805837544,0.00093419551651525,-0.00093418844062862,0.0009341958988279,1.2978272391217e-09,-4.0681321792368e-09,2.4753286373504e-09,-5.1633695684275e-09,-0.0017169498894905,0.0017169471967333,-0.0018858702082927,0.0018858719115062,-0.0018858726527345,0.0018858692382038,-0.0018858719124688,0.0018858700085338,-0.0018858743568287,0.0018858673351933,-0.0015255029478941,0.0015255059731755,-0.0015255112122693,0.0015254992319738,-0.0015255044594023,0.0015255044227711,-0.0015255105296848,0.0015254999419609,3.0586277865501e-09,3.0588247451361e-09,-0.00094918353559907,0.00094918930378838,-1.0222132627336e-09,6.7991584953264e-09,-0.0010738153062111,0.0010738194341252,-0.001073812649046,0.0010738220623888,-0.0010738154554804,0.0010738195839234,-0.0010738128311699,0.0010738222450515,-0.00093418795668023,0.00093419637917798,-0.000934187564277,0.00093419598670123,0.65449699558048,122718,2924,0.0039487873162448,0.007127432013582,0.0039487873162414,29.145105261505,0.00014836084209204,0.00014836084209204,0.00014836084209204,2620459.0442569,0.015138937753649
32169200,0.99997927893222,0.016029764342821,0.004809590350508,0.0064105836418083,0.0048095903505052,-0.00095119483494241,0.00095120301989715,3.9665662753767e-09,3.9667642141852e-09,8.5908135120037e-10,6.6922327901173e-09,-0.0010724354612064,0.0010724423414034,-0.0010724354260538,0.0010724423067856,-0.0010724334857047,0.0010724443266898,-0.0010724334781873,0.0010724443197153,-0.00093608934347228,0.00093609902908658,-0.00093608969800138,0.00093609938367456,1.333747643925e-09,-4.198215762302e-09,2.5003139952414e-09,-5.2796512949829e-09,-0.0017148926814677,0.0017148898972824,-0.0018859806724152,0.0018859824132869,-0.0018859829542665,0.0018859794574426,-0.0018859822225337,0.0018859802199568,-0.0018859845043042,0.0018859772640749,-0.001521612675624,0.0015216156836656,-0.0015216209659261,0.0015216087010322,-0.0015216141713696,0.0015216141483955,-0.0015216202929494,0.0015216094017754,4.0884245322164e-09,4.0886222552349e-09,-0.00095119471308909,0.00095120314174887,-7.2524546248424e-11,7.913947525613e-09,-0.0010724357204638,0.0010724421074413,-0.0010724330021653,0.0010724447925377,-0.0010724356767212,0.0010724420642294,-0.0010724329956268,0.0010724447865399,-0.00093608921336389,0.00093609986447564,-0.00093608884811872,0.00093609949915777,0.73837692881841,122718,2924,0.0039571105233025,0.0071189905467478,0.0039571105232992,29.286641560386,0.00014949313248309,0.00014949313248309,0.00014949313248309,2672158.8540455,0.015147243459879
32669200,0.99998300702521,0.016029824087823,0.0048096078951872,0.0064106082974519,0.0048096078951844,-0.00094807994135914,0.00094808850764469,4.1118655567194e-09,4.1120629311471e-09,9.6271441391012e-10,6.8855736235111e-09,-0.0010723808188433,0.0010723879806663,-0.0010723807632742,0.0010723879256311,-0.0010723788141218,0.0010723899958256,-0.0010723787861946,0.0010723899684401,-0.00093301791588069,0.00093302794908209,-0.0009330182603407,0.00093302829360061,1.3786298898032e-09,-4.2412747388504e-09,2.545975494961e-09,-5.3226482185152e-09,-0.0017175249339093,0.0017175221522603,-0.0018875335568687,0.0018875353596358,-0.0018875358414844,0.0018875323467175,-0.0018875351088455,0.0018875331093945,-0.0018875373933796,0.0018875300964379,-0.0015250019798786,0.0015250050478008,-0.0015250103285211,0.0015249979503865,-0.0015250034762878,0.0015250035124482,-0.0015250096557307,0.0015249986505811,4.2281172252887e-09,4.2283143270174e-09,-0.00094807982505741,0.00094808862394492,2.4600876989506e-11,8.101820539317e-09,-0.0010723810840224,0.0010723877410614,-0.0010723783352635,0.0010723904566068,-0.0010723810199408,0.001072387677509,-0.0010723783083448,0.0010723904302272,-0.00093301778101326,0.00093302876905379,-0.00093301742586612,0.00093302841383292,0.66777987449772,122718,2924,0.0039442202952809,0.0071298173011591,0.0039442202952779,29.247649346125,0.000149181194769,0.000149181194769,0.000149181194769,2610577.0249776,0.015132083919841
33169200,0.99998604273919,0.016029877780873,0.0048096237847764,0.0064106302113229,0.0048096237847736,-0.00094905942808026,0.00094906827063022,4.2222674718789e-09,4.2224653713393e-09,9.8547904372734e-10,7.0856278618738e-09,-0.0010710843304265,0.0010710916972661,-0.0010710842493617,0.0010710916167363,-0.0010710822680818,0.0010710937721306,-0.0010710822150352,0.0010710937196269,-0.00093393286227386,0.00093394317304207,-0.00093393321697206,0.00093394352779919,1.420480389505e-09,-4.3719084350807e-09,2.5945649042349e-09,-5.4571076694007e-09,-0.0017156579841046,0.0017156551163786,-0.0018868830203743,0.0018868848587054,-0.0018868853371844,0.0018868817536658,-0.0018868846013589,0.0018868825203265,-0.001886886918088,0.0018868794152492,-0.0015220873919087,0.001522090495104,-0.0015220959197346,0.001522083218794,-0.0015220888957667,0.0015220889517045,-0.0015220952453208,0.0015220839209721,4.3437545348689e-09,4.3439521591257e-09,-0.00094905930660024,0.00094906839210866,4.9241496059037e-11,8.3113162104728e-09,-0.0010710845930589,0.0010710914617228,-0.0010710817819226,0.0010710942387888,-0.0010710845032108,0.001071091372405,-0.0010710817300641,0.0010710941874706,-0.00093393273093615,0.00093394400978499,-0.00093393236500999,0.00093394364378611,0.73577529959665,122718,2924,0.0039482632055838,0.0071221416283363,0.0039482632055806,29.101194095578,0.00014800955276462,0.00014800955276462,0.00014800955276462,2651503.8664949,0.015132483704636
33669200,0.99998860818903,0.016029926696644,0.0048096382639419,0.006410650168763,0.0048096382639391,-0.0009478565469212,0.00094786426216046,3.7922539955818e-09,3.792451434903e-09,5.6758779970917e-10,6.6578730804299e-09,-0.0010717281806631,0.0010717345480614,-0.0010717281009439,0.0010717344688756,-0.0010717261221693,0.0010717366190889,-0.0010717260703421,0.0010717365678033,-0.00093287555357166,0.00093288489011211,-0.00093287590763254,0.00093288524423195,1.4372863021254e-09,-4.3690328204875e-09,2.6121113381446e-09,-5.4549969124711e-09,-0.0017180755000516,0.0017180726519273,-0.0018889114786422,0.0018889133454441,-0.0018889137998379,0.0018889102351922,-0.0018889130632558,0.0018889110022884,-0.00188891538437,0.0018889078919986,-0.0015248265661668,0.0015248296995438,-0.001524835106195,0.0015248224051993,-0.0015248280708534,0.0015248281553291,-0.0015248344313004,0.0015248231078572,3.9097570594291e-09,3.9099542212442e-09,-0.00094785642937918,0.00094786437970087,-3.7403411039703e-10,7.8806259794108e-09,-0.0010717284474951,0.0010717343082035,-0.0010717256394267,0.0010717370824207,-0.0010717283590345,0.0010717342202721,-0.0010717255887702,0.0010717370323033,-0.00093287542514741,0.00093288572270874,-0.00093287505991094,0.00093288535739964,0.7934228530144,122718,2924,0.0039432911792918,0.0071321025412682,0.0039432911792885,29.69094995147,0.00015272759961176,0.00015272759961176,0.00015272759961176,2587725.243399,0.015132513952443
34169200,0.9999908027311,0.016029965776346,0.0048096498044986,0.0064106661673517,0.0048096498044957,-0.00094699225626098,0.00094699874143244,3.3109992724729e-09,3.3111966670217e-09,1.3577880555069e-10,6.1106998814308e-09,-0.0010736844348134,0.0010736897867237,-0.0010736845261692,0.0010736898786133,-0.0010736824188249,0.0010736918174773,-0.0010736825344832,0.0010736919336772,-0.00093213052879036,0.00093213887418758,-0.00093213090599086,0.00093213925144797,1.4099887919867e-09,-4.2813993620119e-09,2.5896144589382e-09,-5.373991308372e-09,-0.0017228592134192,0.0017228564239162,-0.0018922749760481,0.0018922768049561,-0.0018922774501604,0.0018922739398507,-0.0018922767097159,0.001892274710503,-0.0018922791837462,0.0018922718453591,-0.0015303357395157,0.0015303388766343,-0.0015303442784997,0.001530331775332,-0.0015303372514996,0.0015303373256737,-0.0015303435989366,0.0015303324822987,3.4265291330929e-09,3.4267262551298e-09,-0.00094699214067579,0.00094699885701606,-8.143706574766e-10,7.3377740512161e-09,-0.0010736847051134,0.0010736895425588,-0.0010736819362741,0.0010736922813618,-0.001073684787926,0.0010736896259009,-0.0010736820529996,0.0010736923986265,-0.00093213042347452,0.00093213973012047,-0.00093213003548934,0.00093213934206187,0.74103861113422,122718,2924,0.0039397354602606,0.0071518372330887,0.0039397354602574,30.676270280612,0.0001606101622449,0.0001606101622449,0.0001606101622449,2557974.9691452,0.015145341492107
34669200,0.99999271203247,0.016030001766169,0.0048096604859653,0.006410680794241,0.0048096604859625,-0.00095080582423936,0.00095081100158636,2.8082847403215e-09,2.8084825288539e-09,-2.4921484934124e-10,5.4776113685562e-09,-0.0010753723304711,0.0010753766425927,-0.0010753725151867,0.0010753768278429,-0.0010753703973561,0.0010753785896179,-0.0010753706048261,0.0010753787976304,-0.00093578378689082,0.00093579098997309,-0.00093578417299743,0.00093579137613925,1.3206031445393e-09,-4.1350636517027e-09,2.4914593042755e-09,-5.2217608035565e-09,-0.0017247316919545,0.0017247289568088,-0.0018956942840273,0.001895695994733,-0.0018956967835185,0.0018956933322782,-0.0018956960486504,0.001895694097892,-0.0018956985480602,0.0018956914353993,-0.0015309073977734,0.0015309104258178,-0.0015309157579301,0.0015309036322392,-0.0015309088996412,0.0015309088844477,-0.0015309150815563,0.0015309043363657,2.9267106981589e-09,2.9269082258011e-09,-0.00095080570579263,0.00095081112003154,-1.1896732902976e-09,6.7013033715035e-09,-0.0010753725946284,0.0010753764032336,-0.0010753699156048,0.0010753790541311,-0.0010753727708785,0.0010753765800137,-0.0010753701239729,0.0010753792630395,-0.00093578369006808,0.00093579185542834,-0.0009357832934538,0.00093579145874124,0.78345117929708,122718,2924,0.0039555426701112,0.0071596282092745,0.003955542670108,32.282128960642,0.00017345703168514,0.00017345703168514,0.00017345703168514,2579119.4065292,0.015185329973882
35169200,0.9999944099208,0.016030031420942,0.0048096692463846,0.0064106929281758,0.0048096692463818,-0.00095431744290093,0.00095432049599947,1.9876845382194e-09,1.9878820476345e-09,-8.5168106490823e-10,4.4223031140284e-09,-0.0010802987520625,0.0010803013806753,-0.0010802990862105,0.0010803017153574,-0.0010802969686397,0.0010803031749154,-0.0010802973234051,0.0010803035302228,-0.0009392623579425,0.00093926767813295,-0.00093926276018574,0.00093926808043586,1.1825581136025e-09,-3.8404288196828e-09,2.319231365015e-09,-4.8993270743327e-09,-0.0017310031611915,0.0017310005768077,-0.0019014007772305,0.0019014023135347,-0.0019014032856718,0.001901400004345,-0.0019014025710018,0.0019014007484961,-0.0019014050793614,0.0019013984392683,-0.0015376046922267,0.0015376075352674,-0.00153761266807,0.0015376013211991,-0.0015376061528167,0.0015376060365397,-0.0015376120077674,0.0015376020083567,2.1002944420641e-09,2.1004916806416e-09,-0.00095431733027705,0.00095432060862184,-1.7704491620522e-09,5.6111419857802e-09,-0.0010802990097689,0.0010803011445274,-0.0010802965043288,0.0010803036250134,-0.0010802993360044,0.0010803014712925,-0.001080296859654,0.0010803039808781,-0.00093926229306175,0.0009392685443483,-0.0009392618812548,0.00093926813246817,0.72659947631695,122718,2924,0.0039701275301099,0.0071855442215579,0.0039701275301068,34.85841813464,0.00019406734507712,0.00019406734507712,0.00019406734507712,2540822.8060551,0.015241262654523
35669200,0.99999582105961,0.016030053392035,0.0048096757208845,0.0064107019502691,0.0048096757208816,-0.00095918279294417,0.00095918725745221,2.5263205753906e-09,2.5265184248945e-09,-2.4248710877351e-10,4.891877591674e-09,-0.0010829675326572,0.001082971411174,-0.0010829677632229,0.0010829716422746,-0.0010829657899502,0.0010829731601112,-0.0010829660437089,0.0010829734144126,-0.00094397078655636,0.00094397720316957,-0.00094397117305652,0.00094397758972901,1.1257342798258e-09,-3.7447690394646e-09,2.2190601624706e-09,-4.7624850382924e-09,-0.0017331844650035,0.0017331819175678,-0.0019049297504456,0.0019049312108011,-0.0019049320701517,0.0019049288533604,-0.0019049313831023,0.0019049295690347,-0.0019049337027272,0.0019049272115562,-0.0015387397786045,0.0015387424704389,-0.0015387474585883,0.0015387364320051,-0.0015387411838058,0.0015387410281341,-0.0015387468239803,0.001538737092746,2.6372580911344e-09,2.6374556744366e-09,-0.00095918268206297,0.00095918736833186,-1.1219810081327e-09,6.03697348766e-09,-0.0010829677770961,0.0010829711869736,-0.001082965342127,0.0010829735948825,-0.0010829680000045,0.0010829714104124,-0.0010829655963491,0.0010829738496449,-0.00094397072165237,0.000943978038009,-0.00094397032582072,0.00094397764210447,0.64777773646526,122718,2924,0.0039903014588004,0.0071946132624107,0.0039903014587973,36.731008796305,0.00020904807037044,0.00020904807037044,0.00020904807037044,2564444.0220325,0.015291420122269
36169200,0.99999692840286,0.016030072170776,0.0048096812833182,0.0064107096041421,0.0048096812833154,-0.00096402289663951,0.00096402886091361,3.1037342459353e-09,3.1039322765816e-09,2.937761216132e-10,5.5138695026598e-09,-0.0010849921520631,0.0010849973062107,-0.0010849922721903,0.0010849974268731,-0.0010849903776028,0.0010849990850946,-0.0010849905234177,0.0010849992314526,-0.00094854715358131,0.00094855481752444,-0.0009485475300782,0.00094855519408016,1.1425904229116e-09,-3.7984045289372e-09,2.1998744105233e-09,-4.7790745881989e-09,-0.0017332939924475,0.0017332914091995,-0.0019063301319181,0.0019063315952026,-0.0019063323313287,0.0019063291029204,-0.0019063316676613,0.0019063297942561,-0.001906333866991,0.0019063273019365,-0.001538074362926,0.001538076987313,-0.0015380819792129,0.0015380708963648,-0.0015380757209243,0.0015380755933748,-0.0015380813684643,0.0015380715324352,3.2132932759344e-09,3.213491045672e-09,-0.00096402278721443,0.00096402897033714,-5.5086046417918e-10,6.6201372129893e-09,-0.0010849923858381,0.0010849970929393,-0.0010849899430505,0.0010849995061608,-0.0010849924983821,0.0010849972060143,-0.0010849900894233,0.0010849996530744,-0.00094854709225466,0.00094855562869719,-0.00094854670619238,0.00094855524256247,0.70513388003606,122718,2924,0.004010358824238,0.0071951241074682,0.0040103588242348,37.898802387923,0.00021839041910339,0.00021839041910339,0.00021839041910339,2605926.7664983,0.015332653202409
36669200,0.99999771499306,0.016030083776904,0.0048096846934284,0.0064107143900497,0.0048096846934256,-0.00096052200589482,0.00096053221764779,4.7456216673906e-09,4.7458191756714e-09,1.7010412539529e-09,7.4148734131776e-09,-0.0010842228621068,0.0010842315222672,-0.0010842226774019,0.0010842313380967,-0.0010842209186406,0.0010842334693495,-0.0010842207652787,0.0010842333165299,-0.00094513513666541,0.00094514642960512,-0.00094513547056995,0.00094514676356898,1.2958817640546e-09,-4.0982104907768e-09,2.3488916413256e-09,-5.0687135400454e-09,-0.0017337183456408,0.0017337156213198,-0.00190525602216,0.0019052576798727,-0.001905258024154,0.0019052546600503,-0.0019052573638588,0.0019052553469269,-0.0019052593657711,0.0019052523270664,-0.0015397075307147,0.0015397102802197,-0.0015397153729632,0.0015397035702037,-0.0015397088806023,0.0015397088955594,-0.0015397147698525,0.0015397041978306,4.8503085036399e-09,4.8505057577904e-09,-0.00096052190133198,0.00096053232220913,8.6009973971982e-10,8.5065351274539e-09,-0.0010842230998386,0.0010842313076558,-0.0010842204892308,0.0010842338824526,-0.0010842229074066,0.0010842311157535,-0.0010842203367752,0.0010842337305364,-0.00094513504011878,0.00094514719036903,-0.00094513469596569,0.00094514684614282,0.61435779539677,122718,2924,0.0039958647589982,0.0071968236742519,0.0039958647589951,37.073419557159,0.00021178735645728,0.00021178735645728,0.00021178735645728,2563496.5166379,0.015304964454555
37169200,0.99999830487715,0.016030093849202,0.0048096876819324,0.0064107184853397,0.0048096876819296,-0.00096348607482867,0.00096349424071406,3.963957834129e-09,3.9641558730342e-09,8.1558854119388e-10,6.7293981780343e-09,-0.0010839931390895,0.0010840000005317,-0.0010839931036145,0.001083999965592,-0.0010839911373158,0.0010840020126674,-0.0010839911296884,0.0010840020055835,-0.00094801197862312,0.00094802167890251,-0.00094801234337575,0.00094802204371372,1.3527600772259e-09,-4.2591974072076e-09,2.4198215834646e-09,-5.2399941355407e-09,-0.001731641013787,0.0017316381887233,-0.0019047161824805,0.0019047178700864,-0.0019047184285611,0.0019047149565101,-0.0019047177604368,0.0019047156521396,-0.0019047200064367,0.0019047127385258,-0.0015364955709402,0.0015364983933555,-0.0015365037603362,0.0015364915462203,-0.0015364969374927,0.0015364969910862,-0.0015365031519086,0.0015364921797686,4.0742746991458e-09,4.0744724669865e-09,-0.00096348596467406,0.00096349435086718,-2.9810793947767e-11,7.837842416161e-09,-0.0010839933765902,0.0010839997882237,-0.0010839906975489,0.0010840024342206,-0.0010839933330022,0.0010839997451665,-0.0010839906910489,0.0010840024282611,-0.00094801190345003,0.00094802247984394,-0.00094801152772643,0.00094802210404802,0.70981367745952,122718,2924,0.0040081289101892,0.0071882938095023,0.0040081289101862,37.266646640403,0.00021333317312323,0.00021333317312323,0.00021333317312323,2616651.1780237,0.015321188344109
37669200,0.99999875547729,0.016030100541676,0.0048096896495073,0.0064107212426644,0.0048096896495045,-0.00096191395812441,0.00096192099196922,3.5241639610373e-09,3.5243613329329e-09,3.8712732225398e-10,6.2838085816083e-09,-0.0010864894100953,0.0010864952659679,-0.0010864894607502,0.0010864953171567,-0.0010864874171515,0.001086497271045,-0.0010864874935155,0.001086497347951,-0.00094662172494386,0.00094663049421857,-0.00094662209572905,0.00094663086506344,1.3726585909576e-09,-4.2354024738323e-09,2.4543093613572e-09,-5.231401787384e-09,-0.0017359866164776,0.0017359838344467,-0.0019068610925136,0.0019068628167274,-0.0019068634355191,0.0019068599961618,-0.0019068627572917,0.0019068607015645,-0.0019068651002155,0.0019068578809606,-0.001542523715171,0.0015425266119101,-0.0015425319629603,0.001542519767831,-0.0015425251009311,0.0015425251906804,-0.0015425313446721,0.0015425204111011,3.6307136900125e-09,3.6309107921382e-09,-0.00096191385167275,0.00096192109841932,-4.7768585667203e-10,7.4038440521455e-09,-0.0010864896562809,0.001086495044737,-0.001086486975748,0.0010864976944244,-0.001086489698919,0.0010864950879046,-0.0010864870531915,0.0010864977724072,-0.00094662165440972,0.00094663130268966,-0.00094662127291138,0.00094663092111843,0.61846631583426,122718,2924,0.0040016422064609,0.0072061877852573,0.0040016422064577,37.975940008207,0.00021900752006566,0.00021900752006566,0.00021900752006566,2546983.835954,0.015326209322142
38169200,0.99999907821768,0.01603010538725,0.0048096910813991,0.0064107232244546,0.0048096910813963,-0.00096291696808073,0.00096292679566342,4.6070544826075e-09,4.6072524885879e-09,1.3030680210635e-09,7.5377997712735e-09,-0.0010842824706714,0.0010842906649582,-0.0010842823165191,0.0010842905113412,-0.0010842803620887,0.0010842927855498,-0.0010842802376463,0.0010842926616505,-0.00094754320780431,0.00094755437141268,-0.00094754355221109,0.00094755471587815,1.4518366747391e-09,-4.4643528693196e-09,2.5596055990412e-09,-5.4815930605653e-09,-0.0017324917130416,0.0017324887858029,-0.001905151735001,0.0019051535622761,-0.0019051539719773,0.0019051503731637,-0.0019051532787302,0.0019051510950277,-0.0019051555156254,0.0019051479058779,-0.0015375940001762,0.0015375969890336,-0.0015376024812219,0.0015375896903942,-0.0015375954175179,0.0015375955346969,-0.0015376018505663,0.0015375903470446,4.721197025304e-09,4.7213947540282e-09,-0.00096291685406442,0.00096292690967814,4.254829169066e-10,8.6874890146831e-09,-0.0010842827185005,0.0010842904445245,-0.0010842799047682,0.0010842932226567,-0.0010842825558311,0.0010842902823857,-0.0010842797816539,0.0010842931000832,-0.00094754309584853,0.0009475551681598,-0.0009475427399078,0.00094755481214652,0.6243826605129,122718,2924,0.0040057803863204,0.0071917949077178,0.0040057803863171,37.37590040211,0.00021420720321688,0.00021420720321688,0.00021420720321688,2601888.6294332,0.015319978281355
38669200,0.9999993154773,0.016030109385977,0.0048096922667518,0.0064107248524763,0.004809692266749,-0.00096241382106711,0.00096242280383535,4.2839186142858e-09,4.2841163223952e-09,9.1802226230188e-10,7.2816362257763e-09,-0.00108449956133,0.0010845069752996,-0.0010844994731671,0.0010845068876713,-0.001084497414244,0.0010845091380008,-0.001084497353819,0.0010845090781183,-0.00094697450397391,0.00094698502544455,-0.0009469748608264,0.00094698538235614,1.5038729210675e-09,-4.5509556221649e-09,2.6444775510849e-09,-5.59925562629e-09,-0.0017325871507807,0.001732584190517,-0.0019047433943434,0.0019047452902941,-0.0019047457650123,0.0019047421123217,-0.001904745050917,0.0019047428557658,-0.0019047474215046,0.0019047396777556,-0.0015381948200851,0.0015381979324687,-0.0015382035334814,0.0015381904649594,-0.0015381962792296,0.001538196435466,-0.0015382028835386,0.0015381911415136,4.4002832974687e-09,4.4004807272168e-09,-0.00096241370479223,0.00096242292010871,1.1809686633945e-11,8.4653138302509e-09,-0.0010844998183287,0.0010845067468016,-0.0010844969435287,0.0010845095875494,-0.0010844997214185,0.0010845066504216,-0.0010844968845098,0.0010845095290705,-0.00094697439163869,0.00094698584740481,-0.00094697402303733,0.00094698547873069,0.7009674210572,122718,2924,0.0040036948624917,0.0071921758393232,0.0040036948624886,37.195566507831,0.00021276453206265,0.00021276453206265,0.00021276453206265,2591818.5730987,0.015316136200985
38880000,0.99999940274443,0.016030110886495,0.0048096927117039,0.0064107254630902,0.0048096927117011,-0.00095990361580753,0.00095991221283707,4.1314622015793e-09,4.1316700826534e-09,7.5659952429727e-10,7.1442856648005e-09,-0.0010849899951565,0.0010849970406214,-0.0010849899382672,0.0010849969842727,-0.0010849878416095,0.0010849992107559,-0.0010849878114832,0.0010849991811778,-0.00094470230101132,0.00094471251133377,-0.00094470266022846,0.00094471287065614,1.5322246825289e-09,-4.5519210163787e-09,2.6928198282615e-09,-5.620158699186e-09,-0.0017348636011307,0.0017348606682201,-0.0019055316210817,0.001905533571373,-0.0019055340439016,0.0019055304051728,-0.001905533316651,0.0019055311618576,-0.0019055357393905,0.0019055279956187,-0.0015414565438369,0.0015414597435604,-0.0015414653305306,0.0015414522118948,-0.0015414580287528,0.0015414582204638,-0.001541464667876,0.0015414529012611,4.2459726279067e-09,4.2461592638374e-09,-0.00095990350133109,0.0009599123273069,-1.715020367305e-10,8.346358060643e-09,-0.0010849902607486,0.0010849968035699,-0.0010849873657917,0.0010849996654053,-0.0010849901951249,0.0010849967384684,-0.0010849873370525,0.0010849996371995,-0.00094470218617601,0.00094471334058274,-0.00094470181534391,0.0009447129697182,0.71503349778785,122718,2924,0.0039933097026359,0.0072015309618365,0.0039933097026222,37.193682845594,0.00021274946276475,0.00021274946276475,0.00021274946276475,2542229.9490527,0.015304563452533
