time,ASR_ext,ASR_strain,ASR_strain_xx,ASR_strain_yy,ASR_strain_zz,disp_x_101,disp_x_102,disp_x_103,disp_x_104,disp_x_105,disp_x_106,disp_x_p1_neg,disp_x_p1_pos,disp_x_p2_neg,disp_x_p2_pos,disp_x_p3_neg,disp_x_p3_pos,disp_x_p4_neg,disp_x_p4_pos,disp_x_p5_neg,disp_x_p5_pos,disp_x_p6_neg,disp_x_p6_pos,disp_y_101,disp_y_102,disp_y_103,disp_y_104,disp_y_105,disp_y_106,disp_y_p1_neg,disp_y_p1_pos,disp_y_p2_neg,disp_y_p2_pos,disp_y_p3_neg,disp_y_p3_pos,disp_y_p4_neg,disp_y_p4_pos,disp_y_p5_neg,disp_y_p5_pos,disp_y_p6_neg,disp_y_p6_pos,disp_y_p7_neg,disp_y_p7_pos,disp_y_p8_neg,disp_y_p8_pos,disp_z_101,disp_z_102,disp_z_103,disp_z_104,disp_z_105,disp_z_106,disp_z_p1_neg,disp_z_p1_pos,disp_z_p2_neg,disp_z_p2_pos,disp_z_p3_neg,disp_z_p3_pos,disp_z_p4_neg,disp_z_p4_pos,disp_z_p5_neg,disp_z_p5_pos,disp_z_p6_neg,disp_z_p6_pos,humidity,ndof,nelem,strain_xx,strain_yy,strain_zz,temp,thermal_strain_xx,thermal_strain_yy,thermal_strain_zz,vonmises,vstrain
2419200,0,0,0,0,0,0,0,0,0,0,0,0,0,0,0,0,0,0,0,0,0,0,0,0,0,0,0,0,0,0,0,0,0,0,0,0,0,0,0,0,0,0,0,0,0,0,0,0,0,0,0,0,0,0,0,0,0,0,0,0,0,0,0,0,0,0,0,0,0,0,0,0,0,0,0
3419200,0.15971950124424,0.0027545092224155,0.00091816974080516,0.00091816974080516,0.00091816974080516,-0.00025202967155724,0.00025202966618237,-1.782751053804e-12,-1.882468279527e-12,-1.016406622729e-12,-2.6394197719495e-12,-0.00025595076617016,0.00025595076260924,-0.00025595076681777,0.00025595076318162,-0.00025595076671402,0.00025595076207826,-0.00025595076734227,0.00025595076264242,-0.00025183387332042,0.00025183386880813,-0.00025183387368534,0.00025183386900142,-5.131775911592e-13,1.0792230010664e-12,-7.5010824647267e-13,1.2924698615212e-12,-0.00026660501006582,0.00026660501061131,-0.00026889164616267,0.0002688916454642,-0.00026889164610924,0.00026889164679757,-0.0002688916462433,0.0002688916466347,-0.00026889164619737,0.0002688916479656,-0.00026267676511635,0.00026267676419736,-0.00026267676346066,0.00026267676653496,-0.00026267676480622,0.00026267676448822,-0.00026267676357109,0.00026267676638938,-1.9369183652382e-12,-1.8365833899616e-12,-0.00025202967162736,0.00025202966614271,-8.4903028329588e-13,-2.9216563632804e-12,-0.00025595076619915,0.00025595076261328,-0.00025595076690614,0.00025595076193859,-0.00025595076677913,0.00025595076328874,-0.00025595076749106,0.00025595076256898,-0.00025183387374033,0.00025183386895072,-0.00025183387352953,0.00025183386858626,0.78394575003275,131490,2924,0.001049571673379,0.0011102349166793,0.0010495716734424,31.872959345485,0.00017018367476388,0.00017018367476388,0.00017018367476388,1164762.3225362,0.0032145354013418
4419200,0.35112977771201,0.0059630905270019,0.001935652290051,0.0020917859467331,0.0019356522902178,-0.00048556451141764,0.00048556449973479,-4.2525922406379e-12,-4.3704362017358e-12,-2.4772183934506e-12,-6.4061423408665e-12,-0.00050099940253965,0.00050099939405424,-0.00050099940447984,0.00050099939589629,-0.00050099940387843,0.00050099939276468,-0.00050099940576407,0.00050099939457843,-0.00048668391990054,0.00048668390937442,-0.00048668392122666,0.00048668391052177,-9.9216643999631e-13,2.8016537055201e-12,-1.2464088936521e-12,2.989925101017e-12,-0.00056003083828509,0.00056003084002877,-0.00057254110542967,0.00057254110437674,-0.00057254110629759,0.00057254110816733,-0.00057254110639697,0.00057254110797776,-0.00057254110730199,0.00057254111175196,-0.00054182201765607,0.00054182201654142,-0.00054182201564524,0.00054182202280852,-0.00054182201732181,0.00054182201683212,-0.00054182201570032,0.00054182202265796,-4.4660808878239e-12,-4.3467256002225e-12,-0.00048556451155072,0.00048556449967765,-2.3591770317023e-12,-6.7288091026441e-12,-0.00050099940264599,0.00050099939403785,-0.00050099940415031,0.00050099939261721,-0.00050099940450693,0.0005009993960446,-0.00050099940601402,0.00050099939450923,-0.00048668392133261,0.00048668391043155,-0.00048668392015092,0.00048668390911057,0.77879543345351,131490,2924,0.0020211533931101,0.0023307230950368,0.002021153393268,33.606624218026,0.0001840529937442,0.0001840529937442,0.0001840529937442,2263406.5734682,0.0063933951373547
5419200,0.55130036133738,0.0092375602214031,0.0029248125711519,0.0033879350789751,0.0029248125712761,-0.00070775637962838,0.00070775637374573,-1.9650493992368e-12,-2.0831392241473e-12,-2.0508115586734e-13,-3.5770844284085e-12,-0.00073879191063075,0.00073879190625613,-0.00073879191200106,0.00073879190753667,-0.00073879191179399,0.00073879190514797,-0.00073879191312198,0.00073879190639732,-0.00070911814132677,0.0007091181356181,-0.00070911814180287,0.00070911813588292,-7.1065673110115e-13,2.4930551035838e-12,-8.9539920499244e-13,2.6276311688479e-12,-0.00088888278967202,0.00088888279139971,-0.00092482054791554,0.00092482054733356,-0.00092482054805692,0.00092482054987365,-0.00092482054811821,0.00092482054973547,-0.00092482054830957,0.0009248205522485,-0.00084271184598183,0.00084271184534525,-0.00084271184290948,0.00084271184916271,-0.00084271184573249,0.00084271184555898,-0.00084271184294081,0.00084271184905267,-2.1563727125291e-12,-2.0369695219793e-12,-0.00070775637972589,0.00070775637370346,-1.2314185574789e-13,-3.8109307073593e-12,-0.0007387919107246,0.00073879190623721,-0.00073879191199982,0.00073879190503096,-0.0007387919120225,0.00073879190766308,-0.00073879191328968,0.00073879190636507,-0.00070911814183669,0.00070911813585762,-0.0007091181415549,0.00070911813538987,0.77316831871301,131490,2924,0.0029447322322394,0.0036967517085891,0.0029447322323541,36.277816644518,0.00020542253315615,0.00020542253315615,0.00020542253315615,3118227.382311,0.009632358254818
6419200,0.70749982465076,0.011612705486386,0.0036059771243223,0.0044007512376394,0.0036059771244243,-0.00084672101207028,0.00084672100787574,-1.3566870173782e-12,-1.4748600685203e-12,1.5227164783804e-13,-3.1663158006375e-12,-0.00089732401345661,0.00089732401063754,-0.00089732401444349,0.00089732401153318,-0.00089732401459604,0.0008973240095452,-0.00089732401554582,0.00089732401041696,-0.00084270786650124,0.00084270786239322,-0.0008427078665567,0.00084270786223956,-7.3016328224823e-13,2.4443881344439e-12,-9.168035216935e-13,2.5859200607407e-12,-0.0011480757910435,0.0011480757927089,-0.0012143112751886,0.0012143112745603,-0.0012143112750892,0.0012143112768486,-0.0012143112751618,0.0012143112767141,-0.0012143112751057,0.001214311278978,-0.001064655887914,0.0010646558872231,-0.0010646558851425,0.0010646558912943,-0.0010646558876629,0.0010646558874423,-0.0010646558851816,0.0010646558911863,-1.5485579867341e-12,-1.4291105181252e-12,-0.00084672101216191,0.00084672100782816,2.3963973799403e-13,-3.4052238560207e-12,-0.0008973240135417,0.00089732401061422,-0.00089732401479516,0.00089732400941953,-0.00089732401445379,0.00089732401165726,-0.00089732401570705,0.0008973240103737,-0.00084270786659276,0.00084270786220802,-0.00084270786673025,0.00084270786216316,0.72911593730971,131490,2924,0.003522041363417,0.0047720572139582,0.0035220413635085,36.740412957087,0.0002091233036567,0.0002091233036567,0.0002091233036567,3554349.3035146,0.011886347994266
7419200,0.83266244950849,0.01344576913914,0.004114061472497,0.0052176461940556,0.0041140614725877,-0.00094255295982679,0.00094255295483917,-1.657641367547e-12,-1.7758251243019e-12,-1.2307942015526e-13,-3.4708241451754e-12,-0.0010128630450007,0.0010128630415609,-0.0010128630459868,0.0010128630424565,-0.0010128630461509,0.0010128630404582,-0.0010128630471005,0.0010128630413294,-0.00093331791843816,0.00093331791364603,-0.0009333179184987,0.00093331791349528,-7.5665397297581e-13,2.4418539618612e-12,-9.4590827962194e-13,2.5856803033593e-12,-0.0013689550397852,0.0013689550414205,-0.0014690812151389,0.001469081214455,-0.00146908121495,0.0014690812166784,-0.0014690812150229,0.001469081216542,-0.0014690812148756,0.001469081218743,-0.0012461844788306,0.001246184478092,-0.0012461844759215,0.0012461844820811,-0.0012461844785786,0.0012461844783161,-0.0012461844759661,0.0012461844819747,-1.8423877751417e-12,-1.7229253364019e-12,-0.0009425529599076,0.00094255295479568,-2.6506837293139e-14,-3.7041715239261e-12,-0.0010128630450732,0.0010128630415418,-0.0010128630463387,0.0010128630403353,-0.0010128630459843,0.0010128630425826,-0.0010128630472488,0.0010128630412886,-0.00093331791852484,0.00093331791346968,-0.00093331791866123,0.00093331791342113,0.71231678900951,131490,2924,0.0039200980219887,0.0056874521798584,0.0039200980220662,40.77785543214,0.00024142284345712,0.00024142284345712,0.00024142284345712,3680019.2088109,0.013619784431542
8419200,0.90812109805881,0.014526018541508,0.0044109900883355,0.0057040383647517,0.0044109900884212,-0.000980446272984,0.00098044627001986,-1.0150114865811e-12,-1.1331246164724e-12,3.5991894406155e-13,-2.6891946704782e-12,-0.0010665443134958,0.0010665443115302,-0.0010665443142017,0.0010665443121458,-0.001066544314546,0.0010665443105277,-0.0010665443152183,0.0010665443111216,-0.00096774990563348,0.00096774990242594,-0.00096774990566152,0.00096774990224252,-6.7357368749209e-13,2.2393014144083e-12,-8.4543676072259e-13,2.3696276095031e-12,-0.0015054292505128,0.0015054292520322,-0.0016300808481399,0.0016300808475539,-0.0016300808477972,0.0016300808494005,-0.00163008084786,0.0016300808492746,-0.001630080847559,0.0016300808510988,-0.0013539195587159,0.0013539195580724,-0.0013539195560769,0.001353919561716,-0.0013539195584852,0.001353919558276,-0.0013539195561152,0.0013539195616189,-1.195878952013e-12,-1.0764896875084e-12,-0.00098044627305889,0.00098044626997846,4.4667223682271e-13,-2.9042289515123e-12,-0.0010665443135682,0.0010665443115083,-0.0010665443147209,0.0010665443104104,-0.0010665443141984,0.0010665443122682,-0.0010665443153536,0.0010665443110862,-0.00096774990567806,0.0009677499022251,-0.00096774990584732,0.00096774990220917,0.69845760322035,131490,2924,0.0040776091025425,0.0062525685908054,0.0040776091026121,41.436038112076,0.00024668830489661,0.00024668830489661,0.00024668830489661,3564947.0989124,0.014512390275447
9419200,0.94987261709373,0.015109581148235,0.0045718288558918,0.0059659234363677,0.0045718288559752,-0.00098937079147399,0.00098937078959631,-6.659906250318e-13,-7.8416265592704e-13,5.677443543291e-13,-2.1847813740758e-12,-0.001086545652627,0.0010865456514465,-0.0010865456531748,0.0010865456519038,-0.0010865456535795,0.0010865456505433,-0.0010865456540951,0.0010865456509805,-0.00097432067216069,0.00097432066985351,-0.00097432067220063,0.00097432066968178,-5.9396306071856e-13,2.0318719571182e-12,-7.2852580286033e-13,2.1291936016558e-12,-0.0015829842215387,0.0015829842229342,-0.0017236427869936,0.0017236427865045,-0.0017236427865752,0.0017236427880326,-0.0017236427866155,0.0017236427879306,-0.001723642786239,0.0017236427894363,-0.0014125349596515,0.0014125349591372,-0.0014125349572997,0.0014125349623695,-0.0014125349594678,0.0014125349592933,-0.0014125349573187,0.001412534962294,-8.4102351319133e-13,-7.2157522107819e-13,-0.00098937079154167,0.00098937078955979,6.2794299324318e-13,-2.3597857915977e-12,-0.0010865456527048,0.0010865456514183,-0.0010865456537344,0.0010865456504409,-0.0010865456531762,0.0010865456520194,-0.0010865456542103,0.0010865456509601,-0.00097432067219929,0.00097432066968122,-0.00097432067235683,0.00097432066965323,0.67991952503907,131490,2924,0.0041148518220103,0.0065735295402917,0.0041148518220751,41.144274325831,0.00024435419460665,0.00024435419460665,0.00024435419460665,3395333.8126108,0.014913715537917
10419200,0.97074692554153,0.015408788285036,0.0046555622584436,0.0060976637680662,0.0046555622585261,-0.00098327621275113,0.00098327621334359,1.5634969788876e-13,3.8402007968638e-14,1.1093407960619e-12,-1.0511860634579e-12,-0.0010864588614552,0.0010864588620915,-0.0010864588616895,0.0010864588622354,-0.0010864588622129,0.0010864588613876,-0.0010864588624174,0.0010864588615138,-0.0009673880034785,0.00096738800323145,-0.00096738800353895,0.00096738800308068,-4.2883634052063e-13,1.6277687727813e-12,-4.847751904507e-13,1.6551193195938e-12,-0.0016185104485395,0.0016185104497039,-0.001768612131316,0.0017686121310401,-0.0017686121307697,0.0017686121319491,-0.0017686121307618,0.0017686121318978,-0.0017686121302575,0.0017686121327843,-0.0014370774055802,0.0014370774053449,-0.0014370774038181,0.0014370774077644,-0.0014370774054948,0.0014370774054,-0.0014370774037949,0.0014370774077337,-7.5774743957115e-15,1.1164607458318e-13,-0.00098327621280717,0.00098327621331741,1.1117430958351e-12,-1.1433184611926e-12,-0.0010864588615485,0.0010864588620507,-0.0010864588623297,0.0010864588613175,-0.0010864588617053,0.001086458862337,-0.0010864588624949,0.0010864588615258,-0.0009673880035026,0.00096738800311423,-0.00096738800363823,0.00096738800306477,0.69326653991157,131490,2924,0.0040897017853346,0.0067205015200696,0.0040897017853967,38.0877628458,0.0002199021027664,0.0002199021027664,0.0002199021027664,3273200.3260643,0.015011860423873
11419200,0.98280694227838,0.015578568628644,0.0047033680423953,0.0061718325437718,0.0047033680424772,-0.00097965523062257,0.00097965522944324,-4.4111599663557e-13,-5.5897957613118e-13,5.1243787294826e-13,-1.6500745913539e-12,-0.0010883370446518,0.0010883370438571,-0.0010883370450984,0.0010883370442133,-0.0010883370454145,0.0010883370431509,-0.0010883370458285,0.0010883370434867,-0.00096298782154329,0.00096298781995117,-0.00096298782161266,0.00096298781980954,-4.2315819045481e-13,1.6186334048017e-12,-4.1440834010967e-13,1.5814385704902e-12,-0.0016453824226447,0.0016453824238056,-0.0018000330996928,0.0018000330994477,-0.0018000330994048,0.0018000331005385,-0.0018000330993558,0.0018000331005307,-0.00180003309911,0.0018000331015989,-0.0014579113651144,0.001457911365018,-0.0014579113635464,0.0014579113673427,-0.0014579113651126,0.0014579113649868,-0.0014579113634824,0.0014579113673549,-5.9694113150525e-13,-4.7780087409951e-13,-0.00097965523067004,0.00097965522942476,4.6024041055961e-13,-1.6686454909374e-12,-0.0010883370447584,0.0010883370438024,-0.0010883370455019,0.0010883370431094,-0.0010883370451271,0.0010883370443007,-0.0010883370458764,0.0010883370435269,-0.00096298782154689,0.00096298781987226,-0.00096298782167369,0.00096298781981418,0.6790370572971,131490,2924,0.0040747881394693,0.0068316302405782,0.0040747881395296,37.626140712825,0.0002162091257026,0.0002162091257026,0.0002162091257026,3140028.2680709,0.015094411400883
12419200,0.98972336450272,0.015678441177527,0.0047317818371448,0.0062148775031561,0.0047317818372264,-0.00097467986056026,0.00097467985978449,-3.1301105721236e-13,-4.3082136903379e-13,6.0895461008996e-13,-1.4836842626995e-12,-0.0010856810357415,0.0010856810352559,-0.0010856810361314,0.0010856810355555,-0.001085681036481,0.0010856810345734,-0.0010856810368385,0.0010856810348528,-0.00095778397518212,0.00095778397391105,-0.00095778397526222,0.00095778397378023,-4.0895868306354e-13,1.5667381372254e-12,-3.4091282064146e-13,1.4712723477573e-12,-0.0016585907325011,0.0016585907336253,-0.0018174020145636,0.0018174020143673,-0.0018174020142661,0.0018174020153251,-0.0018174020141799,0.0018174020153568,-0.0018174020139245,0.001817402016292,-0.0014663877549386,0.0014663877549627,-0.0014663877535307,0.0014663877570881,-0.001466387755013,0.0014663877548528,-0.00146638775343,0.001466387757139,-4.6062000190454e-13,-3.4153288993406e-13,-0.00097467986059923,0.00097467985977393,5.0861928555937e-13,-1.4349848791087e-12,-0.0010856810358595,0.0010856810351898,-0.0010856810365408,0.0010856810345583,-0.001085681036171,0.0010856810356308,-0.0010856810368588,0.0010856810349193,-0.00095778397516903,0.00095778397387035,-0.00095778397528498,0.00095778397380145,0.69352359007829,131490,2924,0.0040542074209867,0.0068862571690738,0.0040542074210459,36.800801302228,0.00020960641041782,0.00020960641041782,0.00020960641041782,3069758.149115,0.015108087748612
13419200,0.99358566539643,0.015732811895269,0.0047472821245664,0.0062382476460543,0.0047472821246479,-0.00096733200053028,0.00096733200083391,4.8291771043073e-14,-6.9526766630005e-14,8.7783308721352e-13,-1.0123381325885e-12,-0.0010813465595248,0.0010813465598314,-0.0010813465597872,0.0010813465600035,-0.0010813465601971,0.0010813465592171,-0.0010813465604281,0.0010813465593699,-0.00095006312503735,0.00095006312465173,-0.00095006312513309,0.00095006312453658,-3.4527765788691e-13,1.4363989719386e-12,-2.2509571171581e-13,1.2913379034546e-12,-0.0016662505020168,0.0016662505030767,-0.001826391597517,0.0018263915974257,-0.0018263915971655,0.0018263915981272,-0.0018263915970464,0.0018263915981932,-0.0018263915967371,0.001826391598872,-0.0014719155307135,0.0014719155308967,-0.0014719155295456,0.0014719155326842,-0.0014719155308543,0.0014719155307185,-0.0014719155294138,0.0014719155327674,-9.4264987916384e-14,2.4830520856397e-14,-0.00096733200056393,0.00096733200082829,7.3402704656582e-13,-9.0803014449356e-13,-0.0010813465596554,0.0010813465597538,-0.0010813465602345,0.0010813465592228,-0.0010813465598389,0.0010813465600669,-0.001081346560426,0.0010813465594573,-0.00095006312501811,0.0009500631246483,-0.0009500631251182,0.00095006312456357,0.67547695236814,131490,2924,0.0040237743639484,0.0069179023548625,0.0040237743640068,34.786203346288,0.0001934896267703,0.0001934896267703,0.0001934896267703,2994492.1452343,0.015078439990886
14419200,0.99581605693508,0.015763784460334,0.0047561273478786,0.0062515297644958,0.00475612734796,-0.00095967536241643,0.00095967536291428,1.1088563274062e-13,-6.9227000511918e-15,8.7025159639639e-13,-8.7409594402774e-13,-0.0010742516489643,0.0010742516493963,-0.0010742516491991,0.0010742516495407,-0.0010742516495897,0.0010742516488308,-0.0010742516497929,0.0010742516489559,-0.00094239801596844,0.00094239801577621,-0.00094239801607276,0.00094239801566963,-3.0800703177307e-13,1.3304058864252e-12,-1.3487535023887e-13,1.1347502753345e-12,-0.0016667260643722,0.0016667260653656,-0.0018294239507991,0.001829423950771,-0.0018294239504918,0.0018294239513538,-0.0018294239503399,0.0018294239514548,-0.0018294239500748,0.0018294239520149,-0.0014696879352586,0.0014696879355699,-0.0014696879343232,0.0014696879371056,-0.0014696879354669,0.001469687935322,-0.0014696879341599,0.0014696879372221,-2.3956591671981e-14,9.5128638003055e-14,-0.00095967536244221,0.00095967536291625,6.8512224645625e-13,-7.1053411811895e-13,-0.001074251649105,0.0010742516493095,-0.0010742516496021,0.0010742516488602,-0.0010742516492605,0.0010742516495944,-0.0010742516497658,0.0010742516490669,-0.00094239801593311,0.00094239801580584,-0.00094239801602431,0.00094239801571219,0.66541368793086,131490,2924,0.0039920277545183,0.0069198654182277,0.0039920277545761,32.634954756526,0.00017627963805221,0.00017627963805221,0.00017627963805221,2967801.6014046,0.015015983703358
15419200,0.99697694649544,0.015780824414934,0.0047610454206905,0.0062587335734714,0.0047610454207719,-0.00094530718662572,0.0009453071900175,1.0834197441823e-12,9.6576056314142e-13,1.5525140074245e-12,4.2623897869178e-13,-0.0010605253183359,0.0010605253209189,-0.0010605253182226,0.0010605253207154,-0.0010605253187576,0.001060525320562,-0.0010605253186152,0.0010605253203416,-0.00092808543359987,0.00092808543581032,-0.00092808543373782,0.00092808543573765,-1.3192773440416e-13,9.1474055530394e-13,1.3252601024489e-13,6.3661343424951e-13,-0.0016595197177838,0.0016595197185458,-0.0018239413418648,0.0018239413420764,-0.001823941341409,0.0018239413419844,-0.001823941341201,0.0018239413421445,-0.0018239413407872,0.0018239413420299,-0.0014605479315715,0.0014605479321998,-0.001460547931267,0.0014605479328715,-0.0014605479318943,0.0014605479318341,-0.0014605479310536,0.0014605479330408,9.6057889026839e-13,1.0795147568593e-12,-0.0009453071866395,0.00094530719003125,1.2984582741675e-12,6.8622764099603e-13,-0.0010605253184963,0.0010605253208169,-0.0010605253187277,0.0010605253206292,-0.0010605253183027,0.0010605253207527,-0.0010605253185463,0.0010605253204907,-0.00092808543355817,0.00092808543591328,-0.00092808543361421,0.00092808543578472,0.70136297396129,131490,2924,0.0039324237690101,0.0068900367562157,0.0039324237690675,27.04697464141,0.00013157579713128,0.00013157579713128,0.00013157579713128,2953362.5234001,0.014864721241293
16419200,0.9977228384238,0.015791383879842,0.0047640839106962,0.0062632160583681,0.0047640839107775,-0.00093762746577326,0.00093762746682358,3.0300422872292e-13,1.8536514501158e-13,8.3373158521943e-13,-4.2993904212797e-13,-0.0010558012377862,0.0010558012384975,-0.0010558012379671,0.0010558012385881,-0.0010558012382575,0.0010558012380925,-0.0010558012384058,0.0010558012381628,-0.00091992218484333,0.00091992218524013,-0.00091992218497036,0.00091992218515667,-1.4669454799402e-13,1.0141442832942e-12,1.9582119426752e-13,6.554170951047e-13,-0.0016614628232903,0.0016614628241344,-0.0018246906088985,0.0018246906091458,-0.0018246906087767,0.0018246906093815,-0.0018246906085178,0.0018246906095945,-0.0018246906084383,0.0018246906098075,-0.0014628950648349,0.0014628950656342,-0.0014628950646619,0.0014628950663419,-0.0014628950652597,0.0014628950651637,-0.0014628950643962,0.0014628950665648,1.853356763576e-13,3.0425214648224e-13,-0.00093762746578169,0.00093762746684252,5.0601012997316e-13,-8.3449617950866e-14,-0.0010558012379675,0.0010558012383738,-0.0010558012381969,0.0010558012381916,-0.0010558012380679,0.0010558012386036,-0.001055801238306,0.0010558012383434,-0.00091992218475912,0.00091992218536409,-0.00091992218482654,0.00091992218524707,0.6769525104333,131490,2924,0.003900593521784,0.0068980204466518,0.003900593521841,24.407506134855,0.00011046004907884,0.00011046004907884,0.00011046004907884,2890272.1535754,0.01480823631008
17419200,0.99822384089863,0.015798670904353,0.0047661905557312,0.0062662897928089,0.0047661905558125,-0.00092989937737387,0.00092989937827699,2.4725087312613e-13,1.2957031882967e-13,8.2157744181428e-13,-5.3332858953062e-13,-0.0010476495086258,0.0010476495092633,-0.0010476495088163,0.0010476495093635,-0.0010476495091266,0.0010476495088281,-0.0010476495092844,0.0010476495089079,-0.00091243850003899,0.00091243850028664,-0.0009124385001659,0.00091243850020293,-1.8781364477501e-13,1.0642086362155e-12,1.9503645353493e-13,6.6431429388962e-13,-0.001657090028645,0.0016570900294973,-0.0018223519864876,0.0018223519867095,-0.0018223519863728,0.0018223519869595,-0.0018223519860887,0.0018223519871998,-0.001822351986016,0.0018223519874271,-0.0014566099104768,0.0014566099113052,-0.001456609910299,0.0014566099120268,-0.0014566099109541,0.0014566099107801,-0.0014566099100071,0.0014566099122779,1.3747363851e-13,2.5643082797893e-13,-0.00092989937737428,0.0009298993783038,4.6268960044443e-13,-1.3730635869382e-13,-0.0010476495088125,0.0010476495091336,-0.0010476495090456,0.0010476495089478,-0.0010476495089222,0.0010476495093728,-0.001047649509164,0.0010476495091091,-0.00091243849993333,0.00091243850043171,-0.00091243850000106,0.00091243850031485,0.69391687944251,131490,2924,0.0038685270943621,0.0068799367332427,0.0038685270944188,21.970371103444,9.0962968827553e-05,9.0962968827553e-05,9.0962968827553e-05,2887768.3609265,0.014724799113803
18419200,0.99853507598495,0.015803122514705,0.0047674769796179,0.0062681685553882,0.0047674769796993,-0.00091838471801695,0.00091838472195418,1.2697745309509e-12,1.1521018178671e-12,1.6427176194132e-12,7.3153035813206e-13,-0.0010378514518414,0.0010378514547635,-0.0010378514516768,0.0010378514545087,-0.0010378514521935,0.0010378514544784,-0.0010378514519992,0.0010378514542062,-0.00090074091233655,0.00090074091504014,-0.00090074091250337,0.0009007409149964,-4.810535394387e-14,7.8468435196109e-13,3.848467137853e-13,3.4016543170897e-13,-0.0016523550060415,0.0016523550067591,-0.0018174119042304,0.0018174119046494,-0.0018174119038772,0.0018174119042989,-0.001817411903562,0.0018174119045714,-0.0018174119032511,0.0018174119041981,-0.001451618561529,0.0014516185625802,-0.0014516185617328,0.0014516185626832,-0.0014516185620688,0.0014516185619913,-0.0014516185614135,0.0014516185629623,1.162885136422e-12,1.2818345908331e-12,-0.00091838471801436,0.00091838472198386,1.2422580498693e-12,1.1762270422551e-12,-0.0010378514520426,0.0010378514546221,-0.0010378514520925,0.0010378514546155,-0.0010378514517967,0.0010378514545057,-0.0010378514518591,0.0010378514544249,-0.00090074091225241,0.00090074091524318,-0.00090074091227955,0.00090074091508579,0.68264893512423,131490,2924,0.0038207632782587,0.0068603098414336,0.0038207632783152,17.465812517667,5.4926500141333e-05,5.4926500141333e-05,5.4926500141333e-05,2856345.6955551,0.014607965535706
19419200,0.99879298765624,0.01580703216571,0.0047686159199188,0.006269800325791,0.0047686159200002,-0.00091632625732258,0.00091632625625735,-4.1549503669125e-13,-5.3309277780069e-13,2.2103413910289e-13,-1.2740232853455e-12,-0.0010358000673893,0.001035800066486,-0.0010358000678169,0.0010358000668234,-0.0010358000679395,0.0010358000660024,-0.0010358000683317,0.0010358000663167,-0.00089879159611876,0.00089879159482448,-0.00089879159623549,0.00089879159473078,-2.236634907633e-13,1.1512637120368e-12,2.2112800939698e-13,6.8754234899436e-13,-0.0016532286547341,0.0016532286556358,-0.0018194026198673,0.0018194026200811,-0.0018194026200126,0.0018194026206073,-0.0018194026196887,0.0018194026208895,-0.0018194026198761,0.0018194026213931,-0.0014513807508089,0.0014513807517363,-0.0014513807507089,0.0014513807525234,-0.0014513807513672,0.0014513807511277,-0.0014513807503759,0.0014513807528172,-5.1886632546051e-13,-3.999921922778e-13,-0.00091632625731647,0.00091632625629041,-1.9337059266113e-13,-8.0721626197229e-13,-0.0010358000675902,0.0010358000663413,-0.0010358000678322,0.0010358000661491,-0.0010358000679368,0.0010358000668173,-0.0010358000681848,0.0010358000665445,-0.0008987915959758,0.00089879159498682,-0.00089879159605391,0.0008987915948805,0.72156127329639,131490,2924,0.0038122286249938,0.0068639264902049,0.00381222862505,17.551723109083,5.5613784872667e-05,5.5613784872667e-05,5.5613784872667e-05,2840107.0059133,0.014594313572216
20419200,0.99901747208623,0.015810471753093,0.0047696198223275,0.0062712321083565,0.0047696198224088,-0.00091693722547577,0.00091693722330688,-7.9516710157323e-13,-9.1274426708191e-13,9.7655305300398e-14,-1.9294680560753e-12,-0.0010387439228068,0.001038743921168,-0.0010387439233608,0.0010387439216317,-0.0010387439235285,0.001038743920506,-0.0010387439240472,0.0010387439209467,-0.00089892548936265,0.00089892548703967,-0.00089892548946685,0.00089892548693355,-3.7931479454634e-13,1.5181162990597e-12,1.0573441694496e-14,1.1011444784391e-12,-0.001660083386065,0.0016600833871705,-0.0018248488057288,0.0018248488057616,-0.0018248488058176,0.0018248488066476,-0.0018248488055262,0.0018248488068948,-0.0018248488056574,0.001824848807758,-0.0014590416296555,0.0014590416303488,-0.001459041628988,0.0014590416317909,-0.0014590416301465,0.00145904162981,-0.0014590416286822,0.0014590416320553,-9.1013601949876e-13,-7.9128125337146e-13,-0.00091693722548122,0.0009169372233283,-2.8290221047284e-13,-1.5228277387682e-12,-0.0010387439229997,0.001038743921027,-0.001038743923451,0.0010387439206268,-0.0010387439234735,0.0010387439216303,-0.0010387439239298,0.0010387439211482,-0.00089892548923516,0.00089892548716203,-0.00089892548932702,0.00089892548706961,0.72908504895885,131490,2924,0.003814795018772,0.006892246143064,0.003814795018828,18.60013456254,6.4001076500321e-05,6.4001076500321e-05,6.4001076500321e-05,2782283.3840695,0.014628271504832
21419200,0.99917008854743,0.015812747769056,0.0047702827617525,0.0062721822454696,0.0047702827618338,-0.00090753131948423,0.00090753132230397,8.9865473053837e-13,7.8108022401325e-13,1.1586544255938e-12,4.7606101548629e-13,-0.001030395142285,0.0010303951442051,-0.0010303951422671,0.001030395144097,-0.0010303951425668,0.0010303951439947,-0.001030395142517,0.0010303951438671,-0.00088971405287955,0.00088971405481906,-0.0008897140530413,0.0008897140547705,4.6113620672307e-14,6.3757655188576e-13,5.0219507005004e-13,1.7263566727534e-13,-0.0016553361721392,0.0016553361728061,-0.0018204338961818,0.0018204338967112,-0.0018204338960759,0.0018204338964327,-0.0018204338957458,0.00182043389672,-0.0018204338956822,0.0018204338964187,-0.0014537508157193,0.0014537508169241,-0.0014537508162357,0.0014537508167756,-0.0014537508162879,0.0014537508163062,-0.001453750815904,0.0014537508170669,7.8944854465357e-13,9.0829953148456e-13,-0.00090753131948385,0.00090753132233112,7.3468176185883e-13,9.395251180055e-13,-0.0010303951424966,0.0010303951440543,-0.0010303951424596,0.0010303951441363,-0.0010303951423973,0.0010303951440845,-0.0010303951423709,0.0010303951440903,-0.00088971405278555,0.00088971405502198,-0.00088971405281734,0.0008897140548695,0.70949276287808,131490,2924,0.0037757722069334,0.0068725811612917,0.0037757722069892,15.21652944333,3.6932235546641e-05,3.6932235546641e-05,3.6932235546641e-05,2762165.3472619,0.014529139815932
22419200,0.99929649303342,0.01581465162044,0.0047708385190304,0.0062729745822983,0.0047708385191117,-0.00090469043238751,0.00090469043189483,-2.2254902480947e-13,-3.4011444044733e-13,2.8876766364021e-13,-9.4054453171606e-13,-0.0010272442399257,0.0010272442393821,-0.0010272442402911,0.0010272442396573,-0.0010272442403897,0.0010272442389872,-0.0010272442407199,0.0010272442392396,-0.00088711903279558,0.00088711903202631,-0.00088711903292236,0.00088711903194277,-1.3234730982171e-13,9.811131747248e-13,3.5645681637129e-13,4.766984960117e-13,-0.0016543918362099,0.0016543918370358,-0.0018207733158872,0.0018207733162286,-0.0018207733160679,0.0018207733165593,-0.0018207733157162,0.0018207733168702,-0.0018207733159392,0.0018207733171782,-0.0014516237563518,0.0014516237574558,-0.0014516237565595,0.0014516237578717,-0.0014516237569657,0.0014516237567904,-0.0014516237562012,0.0014516237581914,-3.2495716101709e-13,-2.0611527684919e-13,-0.00090469043238025,0.00090469043192874,-1.6521359989675e-13,-4.31147430764e-13,-0.0010272442401407,0.0010272442392248,-0.0010272442402663,0.0010272442391482,-0.0010272442404247,0.0010272442396383,-0.0010272442405571,0.0010272442394817,-0.00088711903264777,0.00088711903221348,-0.00088711903271545,0.00088711903209686,0.71603060868604,131490,2924,0.003763984709252,0.0068686803293972,0.0037639847093076,14.857969007964,3.4063752063711e-05,3.4063752063711e-05,3.4063752063711e-05,2755478.5799622,0.014501259050141
23419200,0.99940876320828,0.015816313595845,0.0047713233418586,0.0062736669120465,0.0047713233419399,-0.00090476509739841,0.00090476509553336,-6.9357121996355e-13,-8.1114932167985e-13,8.0799759563985e-14,-1.6981084180711e-12,-0.0010280641095487,0.0010280641080746,-0.0010280641100686,0.0010280641085043,-0.0010280641101907,0.0010280641074954,-0.001028064110675,0.0010280641079019,-0.00088712081457184,0.00088712081256387,-0.0008871208146856,0.00088712081246727,-3.032912052501e-13,1.3482679583982e-12,1.4977877730234e-13,8.7174089832571e-13,-0.0016576647750453,0.0016576647760603,-0.0018241087984105,0.0018241087985562,-0.0018241087985739,0.0018241087992739,-0.0018241087982433,0.0018241087995626,-0.0018241087984489,0.0018241088002576,-0.0014546487703325,0.0014546487712155,-0.0014546487700086,0.001454648772278,-0.0014546487709035,0.0014546487705941,-0.0014546487696661,0.0014546487725813,-8.0081941786943e-13,-6.8196471056386e-13,-0.00090476509739594,0.0009047650955624,-3.4996619112603e-13,-1.222864462183e-12,-0.0010280641097554,0.0010280641079214,-0.0010280641100846,0.0010280641076428,-0.0010280641101945,0.00102806410849,-0.0010280641105291,0.00102806410813,-0.00088712081442604,0.00088712081272336,-0.00088712081450793,0.00088712081262092,0.70402771110708,131490,2924,0.0037643087598599,0.0068822095580771,0.0037643087599153,15.708000062838,4.0864000502701e-05,4.0864000502701e-05,4.0864000502701e-05,2727876.0478249,0.014515645796166
24419200,0.99951476233356,0.015817909978871,0.0047717905961277,0.0062743287865346,0.004771790596209,-0.00090758879554475,0.00090758879208123,-1.2541639747544e-12,-1.3717685544072e-12,1.2164440517045e-13,-2.9003205148462e-12,-0.0010307140208358,0.0010307140184688,-0.0010307140215225,0.0010307140190653,-0.0010307140218767,0.0010307140174739,-0.0010307140225297,0.0010307140180489,-0.00089003861571626,0.00089003861204913,-0.00089003861581615,0.00089003861193861,-6.9956583462631e-13,2.1824105935603e-12,-5.5669511099355e-13,1.998358245645e-12,-0.0016619073711514,0.0016619073725881,-0.001829186098333,0.0018291860978847,-0.0018291860981054,0.0018291860994217,-0.001829186097969,0.0018291860995066,-0.0018291860977837,0.0018291861010209,-0.0014581051761578,0.0014581051760711,-0.0014581051741213,0.0014581051790186,-0.0014581051763349,0.0014581051758546,-0.0014581051739606,0.0014581051791325,-1.396449162966e-12,-1.2775627213358e-12,-0.00090758879557748,0.00090758879207499,-5.7523448580485e-14,-2.7584342280513e-12,-0.0010307140209709,0.001030714018377,-0.0010307140219082,0.001030714017492,-0.0010307140215792,0.0010307140191148,-0.0010307140225205,0.0010307140181471,-0.00089003861569052,0.00089003861206177,-0.00089003861578883,0.00089003861197568,0.71547766069806,131490,2924,0.0037760340049159,0.0068997696197289,0.0037760340049711,17.887456900919,5.8299655207351e-05,5.8299655207351e-05,5.8299655207351e-05,2711858.4729895,0.014557248744077
25419200,0.99961139301276,0.015819439146637,0.0047722410095318,0.006274957127492,0.0047722410096131,-0.00091038918171792,0.00091038917841043,-1.2000784854849e-12,-1.3177652257137e-12,1.2461550374366e-13,-2.7914095478838e-12,-0.0010343862783156,0.001034386276038,-0.0010343862789842,0.0010343862766163,-0.0010343862793218,0.0010343862750779,-0.0010343862799578,0.001034386275636,-0.00089269671737818,0.00089269671386659,-0.00089269671747779,0.00089269671375565,-6.6667972162743e-13,2.1094807332822e-12,-7.9561392983469e-13,2.1988205334244e-12,-0.0016676580171062,0.0016676580185044,-0.0018346971701132,0.0018346971695192,-0.0018346971697268,0.0018346971711827,-0.0018346971697636,0.0018346971710852,-0.0018346971694195,0.001834697172726,-0.0014638840708219,0.0014638840702294,-0.0014638840683529,0.0014638840736084,-0.0014638840706466,0.0014638840703762,-0.0014638840683669,0.0014638840735399,-1.375496420705e-12,-1.2565339519856e-12,-0.00091038918178391,0.00091038917837086,1.7741249193486e-13,-2.9589782339226e-12,-0.0010343862783925,0.0010343862760035,-0.0010343862794735,0.0010343862749746,-0.0010343862789841,0.0010343862767247,-0.0010343862800693,0.0010343862756132,-0.00089269671747514,0.00089269671375581,-0.00089269671757361,0.00089269671366976,0.75063515068107,131490,2924,0.0037876719658364,0.0069235482293986,0.0037876719658915,19.932102686107,7.4656821488858e-05,7.4656821488858e-05,7.4656821488858e-05,2679493.0091323,0.014604994627805
26419200,0.99969060218397,0.015820720728869,0.004772619366261,0.0062754819962652,0.0047726193663423,-0.00090982152232157,0.00090982152091276,-5.5713116017255e-13,-6.7480450294759e-13,6.2413620696436e-13,-1.9778688421704e-12,-0.0010356408525418,0.0010356408516715,-0.0010356408529932,0.0010356408520326,-0.0010356408534437,0.0010356408508175,-0.0010356408538642,0.00103564085116,-0.00089196432307479,0.00089196432111604,-0.00089196432319313,0.00089196432102391,-5.7048318977721e-13,1.9065369036651e-12,-6.7903343246533e-13,1.9796628167775e-12,-0.0016715756638595,0.0016715756651547,-0.0018376101352895,0.0018376101348164,-0.0018376101347638,0.0018376101361054,-0.0018376101347884,0.0018376101360206,-0.0018376101343051,0.0018376101372868,-0.0014683771798738,0.0014683771794038,-0.0014683771776518,0.0014683771823762,-0.0014683771797228,0.0014683771795253,-0.0014683771776564,0.0014683771823174,-7.2997803790731e-13,-6.1102934817872e-13,-0.00090982152238494,0.00090982152087573,6.6355211129142e-13,-2.1261468427102e-12,-0.0010356408526234,0.0010356408516344,-0.0010356408535859,0.0010356408507217,-0.0010356408529975,0.0010356408521381,-0.0010356408539664,0.001035640851145,-0.00089196432318211,0.00089196432103211,-0.0008919643232613,0.00089196432092686,0.76690557153215,131490,2924,0.0037853389585554,0.0069397219556343,0.0037853389586103,20.395176072876,7.8361408583005e-05,7.8361408583005e-05,7.8361408583005e-05,2637498.6981397,0.014616682937097
27419200,0.99975969095713,0.015821795830322,0.0047729357667926,0.0062759242966554,0.0047729357668739,-0.00091167369047061,0.00091167368794234,-9.3337008177293e-13,-1.0506636526019e-12,2.5755005665491e-13,-2.3752100271994e-12,-0.0010385160890637,0.001038516087312,-0.0010385160896474,0.0010385160878055,-0.001038516089978,0.0010385160864468,-0.0010385160905294,0.0010385160869204,-0.00089399934422511,0.00089399934140534,-0.0008939993443308,0.0008939993413013,-5.7727283529937e-13,1.9219928726723e-12,-6.5849017769472e-13,1.9675483633363e-12,-0.0016763446635574,0.001676344664861,-0.0018421835785075,0.0018421835780366,-0.0018421835781402,0.0018421835794722,-0.0018421835781473,0.0018421835794057,-0.0018421835778224,0.0018421835808185,-0.0014731694045032,0.0014731694040846,-0.0014731694023551,0.0014731694070629,-0.0014731694043878,0.0014731694041695,-0.0014731694023421,0.0014731694070223,-1.1027010926503e-12,-9.8413077371569e-13,-0.00091167369053076,0.00091167368790844,2.7329670979664e-13,-2.4924293138777e-12,-0.0010385160891512,0.0010385160872689,-0.001038516090108,0.0010385160863632,-0.0010385160896577,0.0010385160879047,-0.0010385160906196,0.0010385160869173,-0.00089399934430792,0.00089399934132138,-0.00089399934439907,0.00089399934122885,0.73787290475533,131490,2924,0.0037930414792134,0.0069594333649152,0.0037930414792682,22.256951366839,9.3255610934715e-05,9.3255610934715e-05,9.3255610934715e-05,2604447.7912711,0.014652316296286
28419200,0.99981646631526,0.015822725748049,0.0047732112685583,0.0062763032108509,0.0047732112686396,-0.00091254453102419,0.0009125445290397,-7.5212502309682e-13,-8.6940956289429e-13,3.9802685342049e-13,-2.1460701743234e-12,-0.0010386469871335,0.0010386469857881,-0.0010386469876518,0.0010386469862163,-0.0010386469880183,0.0010386469849529,-0.0010386469885047,0.0010386469853617,-0.00089512617421421,0.00089512617183687,-0.00089512617432574,0.00089512617173865,-5.5047944793661e-13,1.8644932468935e-12,-6.0698263356778e-13,1.8865229562539e-12,-0.0016775666284938,0.0016775666297679,-0.0018447493926029,0.0018447493921781,-0.0018447493922047,0.0018447493934915,-0.0018447493921963,0.0018447493934413,-0.0018447493918405,0.001844749394732,-0.0014732254624434,0.001473225462096,-0.0014732254604032,0.0014732254649236,-0.0014732254623596,0.0014732254621486,-0.0014732254603756,0.0014732254648985,-9.1887653189387e-13,-8.0031591854511e-13,-0.00091254453108172,0.00091254452900835,3.9327313283457e-13,-2.2367744989568e-12,-0.0010386469872268,0.0010386469857398,-0.0010386469881375,0.0010386469848794,-0.0010386469876677,0.00103864698631,-0.0010386469885842,0.0010386469853686,-0.00089512617429231,0.00089512617176914,-0.00089512617437748,0.00089512617167058,0.7751921830721,131490,2924,0.0037966552948533,0.0069645043904006,0.0037966552949079,23.444426243149,0.00010275540994519,0.00010275540994519,0.00010275540994519,2603069.6932439,0.014664785910174
29419200,0.99986259811102,0.01582339516715,0.0047734074719878,0.0062765802230936,0.0047734074720691,-0.00091400698906288,0.00091400698696467,-7.8779039861761e-13,-9.0694051038683e-13,3.520433960512e-13,-2.1726426272591e-12,-0.001041889568162,0.0010418895667137,-0.0010418895686976,0.001041889567158,-0.0010418895690409,0.0010418895658849,-0.0010418895695444,0.0010418895663094,-0.00089637519491235,0.00089637519245793,-0.00089637519502418,0.00089637519235641,-5.4257445413463e-13,1.8518318395732e-12,-5.7513001840802e-13,1.8501587730371e-12,-0.001683019943574,0.0016830199448434,-0.0018490715342532,0.0018490715338518,-0.0018490715338939,0.0018490715351605,-0.0018490715338702,0.0018490715351263,-0.0018490715335532,0.0018490715364123,-0.001479377786504,0.0014793777862127,-0.0014793777845312,0.001479377788973,-0.001479377786451,0.0014793777862334,-0.0014793777844884,0.0014793777889635,-9.5372583491864e-13,-8.3329908740253e-13,-0.00091400698911766,0.00091400698693601,3.26920895144e-13,-2.2366074893529e-12,-0.0010418895682613,0.0010418895666596,-0.0010418895691503,0.0010418895658211,-0.0010418895687182,0.0010418895672471,-0.0010418895696128,0.0010418895663273,-0.00089637519497841,0.00089637519239925,-0.0008963751950669,0.00089637519230043,0.68887568164779,131490,2924,0.0038027477345449,0.0069870320464258,0.0038027477345994,24.783779181844,0.00011347023345475,0.00011347023345475,0.00011347023345475,2560827.0623387,0.014700021061019
30419200,0.99989929309824,0.015823918396195,0.0047735607632848,0.0062767968695443,0.0047735607633661,-0.00091570193672553,0.00091570193459965,-8.019329114265e-13,-9.2111788368866e-13,3.350227027864e-13,-2.1865204385956e-12,-0.0010402391843942,0.0010402391829393,-0.0010402391849252,0.0010402391833789,-0.0010402391852721,0.0010402391821116,-0.0010402391857709,0.0010402391825314,-0.0008985216145107,0.00089852161203238,-0.00089852161462681,0.00089852161193496,-5.4477903384506e-13,1.8467886406982e-12,-5.6361331141198e-13,1.8315653998754e-12,-0.0016809757465658,0.0016809757478282,-0.0018505934646092,0.0018505934642117,-0.0018505934642567,0.0018505934655075,-0.0018505934642245,0.0018505934654825,-0.0018505934639141,0.0018505934667557,-0.0014744601985722,0.0014744601983026,-0.0014744601966386,0.0014744602010432,-0.0014744601985372,0.0014744601983054,-0.0014744601965877,0.001474460201043,-9.6588665459042e-13,-8.4542552577169e-13,-0.00091570193677828,0.00091570193457294,2.9875837313678e-13,-2.234764292904e-12,-0.001040239184496,0.0010402391828826,-0.001040239185375,0.001040239182054,-0.001040239184948,0.0010402391834651,-0.0010402391858326,0.0010402391825555,-0.00089852161457443,0.00089852161198435,-0.00089852161465869,0.00089852161188108,0.67661895266653,131490,2924,0.0038097579928827,0.0069786430996556,0.003809757992937,26.134524920062,0.0001242761993605,0.0001242761993605,0.0001242761993605,2602972.0244057,0.014705707915969
31419200,0.99992900011238,0.015824373684846,0.004773695396249,0.006276982892267,0.0047736953963303,-0.0009195443329886,0.0009195443300376,-1.0828893486208e-12,-1.2025956280847e-12,1.6923034667319e-13,-2.5954941800227e-12,-0.0010437199698412,0.0010437199678029,-0.0010437199704661,0.0010437199683362,-0.0010437199707984,0.0010437199668935,-0.0010437199713906,0.0010437199674063,-0.00090233144972535,0.00090233144653474,-0.00090233144983741,0.00090233144643222,-6.1780571469479e-13,2.0098192484604e-12,-6.5498110842379e-13,2.0094260840007e-12,-0.001685348204042,0.0016853482053913,-0.0018556277280582,0.0018556277275746,-0.0018556277277256,0.0018556277290736,-0.0018556277277044,0.0018556277290371,-0.0018556277274141,0.0018556277305134,-0.0014781766100893,0.0014781766097222,-0.0014781766079302,0.0014781766127639,-0.0014781766100321,0.0014781766097478,-0.0014781766078879,0.0014781766127547,-1.2493863026943e-12,-1.1284039692098e-12,-0.00091954433304334,0.00091954433000883,1.4579481077449e-13,-2.6612340752066e-12,-0.0010437199699385,0.0010437199677488,-0.0010437199709098,0.001043719966829,-0.0010437199704844,0.0010437199684255,-0.0010437199714603,0.0010437199674237,-0.00090233144979189,0.00090233144647497,-0.00090233144988175,0.00090233144637626,0.72613761593801,131490,2924,0.0038257086538842,0.0069967424190823,0.0038257086539384,28.445480591337,0.00014276384473069,0.00014276384473069,0.00014276384473069,2593065.4808685,0.014756442378691
32419200,0.99995069717427,0.015824723066891,0.0047737991932598,0.0062771246802898,0.0047737991933411,-0.00092049848486866,0.00092049848313946,-6.688000502352e-13,-7.8850156192193e-13,4.9915163545135e-13,-2.0802504497767e-12,-0.0010472837667126,0.0010472837655809,-0.0010472837671989,0.0010472837659754,-0.001047283767608,0.0010472837647341,-0.0010472837680628,0.0010472837651096,-0.00090272150456659,0.00090272150236805,-0.00090272150468692,0.0009027215022739,-5.628964803695e-13,1.8891700812684e-12,-6.0078958746697e-13,1.8920097298132e-12,-0.0016915010910675,0.0016915010923533,-0.0018596993542452,0.0018596993538224,-0.0018596993538097,0.0018596993550958,-0.0018596993537893,0.0018596993550582,-0.0018596993533961,0.0018596993563089,-0.0014858229020039,0.0014858229016804,-0.001485822899956,0.0014858229044997,-0.0014858229019445,0.001485822901708,-0.001485822899916,0.0014858229044876,-8.3574489503772e-13,-7.1476751728416e-13,-0.00092049848492381,0.00092049848311024,4.7809307105544e-13,-2.1493769547374e-12,-0.0010472837668104,0.0010472837655275,-0.0010472837677197,0.0010472837646681,-0.0010472837672176,0.0010472837660656,-0.0010472837681331,0.0010472837651255,-0.00090272150464264,0.00090272150231524,-0.00090272150472388,0.00090272150220804,0.76212228763735,131490,2924,0.0038296969757695,0.0070221478062863,0.0038296969758236,29.298069038669,0.00014958455230935,0.00014958455230935,0.00014958455230935,2539115.3559387,0.01479033831964
33419200,0.9999657758185,0.01582496867623,0.0047738722166916,0.0062772242427649,0.0047738722167729,-0.00091897397650594,0.00091897397549718,-4.2290152182527e-13,-5.4260630156475e-13,6.4924488292625e-13,-1.7249561273038e-12,-0.001047446274415,0.0010474462737812,-0.0010474462748232,0.0010474462740977,-0.0010474462752435,0.0010474462730033,-0.0010474462756206,0.0010474462733011,-0.0009012120131917,0.00090121201161417,-0.00090121201331828,0.00090121201152632,-4.9625245747512e-13,1.755908799368e-12,-5.1224093962621e-13,1.7395857980244e-12,-0.001693750280409,0.0016937502816306,-0.0018610332763221,0.0018610332759852,-0.0018610332758732,0.0018610332770821,-0.0018610332758394,0.0018610332770586,-0.0018610332754329,0.0018610332781327,-0.0014886555061597,0.0014886555059408,-0.0014886555043126,0.0014886555084896,-0.0014886555061273,0.0014886555059405,-0.001488655504261,0.0014886555084894,-5.876914728995e-13,-4.667097717486e-13,-0.00091897397655888,0.00091897397547013,6.1133482414076e-13,-1.7721345270287e-12,-0.0010474462745184,0.0010474462737237,-0.0010474462753456,0.0010474462729456,-0.0010474462748473,0.0010474462741835,-0.0010474462756814,0.0010474462733255,-0.00090121201326513,0.00090121201157633,-0.00090121201333977,0.00090121201146257,0.77026491249325,131490,2924,0.0038233886449726,0.0070314192439932,0.0038233886450266,29.317375135417,0.00014973900108334,0.00014973900108334,0.00014973900108334,2503933.3405521,0.014786953595452
34419200,0.99997718975475,0.015825147634799,0.0047739252836774,0.0062772970673629,0.0047739252837586,-0.00092182661314213,0.00092182661034295,-1.0268966694528e-12,-1.1465087340789e-12,1.365630523572e-13,-2.443200597193e-12,-0.00105087390535,0.0010508739033637,-0.001050873905965,0.001050873903887,-0.001050873906248,0.0010508739025159,-0.0010508739068301,0.0010508739030187,-0.00090427210222482,0.00090427209921519,-0.0009042721023341,0.00090427209911021,-5.5924812123613e-13,1.8847990677411e-12,-5.6412711924492e-13,1.854800101836e-12,-0.0016983279407667,0.0016983279420518,-0.0018656181375394,0.0018656181371335,-0.0018656181372701,0.001865618138534,-0.0018656181372287,0.0018656181385185,-0.0018656181370017,0.0018656181398963,-0.0014931547228651,0.0014931547226143,-0.0014931547209275,0.001493154725395,-0.0014931547228483,0.0014931547225978,-0.0014931547208666,0.0014931547254045,-1.1901858024054e-12,-1.0692971866461e-12,-0.00092182661319361,0.0009218266103173,8.7100250911829e-14,-2.475426609953e-12,-0.0010508739054554,0.001050873903303,-0.0010508739063454,0.0010508739024642,-0.0010508739059911,0.0010508739039696,-0.001050873906886,0.0010508739030488,-0.00090427210227544,0.00090427209916589,-0.00090427210236758,0.0009042720990698,0.74167920847059,131490,2924,0.003835237631497,0.0070503461797635,0.0038352376315509,31.489046345291,0.00016711237076233,0.00016711237076233,0.00016711237076233,2479793.0419447,0.014830209468406
35419200,0.99998614232419,0.015825283173886,0.0047739654124937,0.0062773523488173,0.004773965412575,-0.00093002913790513,0.00093002913310495,-1.7075323323829e-12,-1.8271885467976e-12,-2.9351660679855e-13,-3.4056624005279e-12,-0.0010581327099066,0.001058132706503,-0.0010581327107467,0.0010581327072514,-0.0010581327109788,0.0010581327054763,-0.0010581327117846,0.0010581327062029,-0.00091259894963373,0.0009125989449157,-0.00091259894972933,0.00091259894479692,-7.2662109634193e-13,2.2334633868737e-12,-7.8820515616764e-13,2.2528528827732e-12,-0.0017055708145388,0.0017055708159985,-0.0018739487363103,0.0018739487356893,-0.0018739487360978,0.00187394873757,-0.0018739487360912,0.0018739487375183,-0.001873948735921,0.0018739487393763,-0.0014995102466445,0.001499510246133,-0.0014995102441902,0.0014995102496133,-0.0014995102465575,0.0014995102461886,-0.0014995102441591,0.0014995102495921,-1.87668512444e-12,-1.7557523923814e-12,-0.00093002913796244,0.00093002913307341,-2.9979113570424e-13,-3.4946705977488e-12,-0.0010581327099978,0.0010581327064526,-0.0010581327111012,0.0010581327054029,-0.0010581327107592,0.0010581327073449,-0.0010581327118652,0.0010581327062109,-0.00091259894969372,0.00091259894482997,-0.00091259894980066,0.00091259894474856,0.71639793500214,131490,2924,0.0038692769532217,0.0070803315075421,0.0038692769532755,35.943766245629,0.00020275012996503,0.00020275012996503,0.00020275012996503,2473206.5512283,0.014929723179038
36419200,0.99999187022388,0.015825371682022,0.0047739917156307,0.0062773882506795,0.004773991715712,-0.00093242561608783,0.00093242561372973,-8.8809679939945e-13,-1.0077367020423e-12,4.0607854310866e-13,-2.4368639084215e-12,-0.001059724968419,0.0010597249668665,-0.0010597249689726,0.0010597249673284,-0.0010597249693996,0.0010597249659313,-0.0010597249699217,0.0010597249663742,-0.00091504107547116,0.00091504107269828,-0.00091504107558561,0.00091504107259836,-6.4562136494577e-13,2.0648223034489e-12,-7.3845338193255e-13,2.1188501529352e-12,-0.0017076930171463,0.0017076930185216,-0.0018771228369355,0.0018771228363933,-0.0018771228364606,0.0018771228378704,-0.0018771228364745,0.0018771228377969,-0.0018771228360419,0.0018771228392512,-0.0015006998349188,0.0015006998344135,-0.0015006998325417,0.0015006998376181,-0.0015006998347899,0.0015006998345126,-0.0015006998325336,0.001500699837573,-1.0613970309316e-12,-9.4048081307438e-13,-0.00093242561614932,0.00093242561369395,4.2880022397691e-13,-2.5647272734232e-12,-0.0010597249685042,0.0010597249668234,-0.0010597249695358,0.0010597249658423,-0.0010597249689791,0.0010597249674292,-0.0010597249700163,0.001059724966367,-0.00091504107556515,0.00091504107261601,-0.00091504107565275,0.00091504107251525,0.73062862473753,131490,2924,0.0038792206573687,0.0070891285137451,0.0038792206574224,37.485517564092,0.00021508414051273,0.00021508414051273,0.00021508414051273,2474723.2523377,0.014958829660876
37419200,0.99999525215283,0.015825423134445,0.0047740070005325,0.0062774091332982,0.0047740070006138,-0.00093199164500808,0.00093199164381838,-4.9170194575484e-13,-6.1134228875647e-13,6.7636578969528e-13,-1.8964288301069e-12,-0.0010601864723587,0.001060186471647,-0.0010601864727798,0.0010601864719765,-0.0010601864732506,0.0010601864708027,-0.0010601864736412,0.001060186471114,-0.0009144338232051,0.00091443382141419,-0.00091443382332978,0.00091443382132454,-5.6266545801531e-13,1.8871176733799e-12,-6.4387009491645e-13,1.9332867041241e-12,-0.0017096972799115,0.0017096972811954,-0.0018786713064726,0.001878671306026,-0.0018786713059366,0.0018786713072492,-0.0018786713059439,0.0018786713071826,-0.0018786713054502,0.0018786713083832,-0.001502941781559,0.0015029417811483,-0.0015029417794046,0.0015029417840287,-0.0015029417814435,0.0015029417812336,-0.0015029417793923,0.0015029417839878,-6.6372298842418e-13,-5.4280616764418e-13,-0.00093199164506827,0.00093199164378389,6.9228726286403e-13,-2.0145361153927e-12,-0.0010601864724469,0.0010601864716028,-0.0010601864733813,0.0010601864707175,-0.0010601864727892,0.0010601864720758,-0.0010601864737305,0.0010601864711107,-0.00091443382330495,0.0009144338213463,-0.00091443382338181,0.00091443382123483,0.71957119094589,131490,2924,0.0038774316376881,0.0070974028204812,0.0038774316377417,37.681073174934,0.00021664858539947,0.00021664858539947,0.00021664858539947,2453092.4947526,0.014963602952698
38419200,0.99999719587483,0.015825453821329,0.004774016151269,0.0062774215187102,0.0047740161513502,-0.00093011432055832,0.00093011432001591,-2.6505517112882e-13,-3.8471944561443e-13,6.1714113205616e-13,-1.365862744419e-12,-0.0010581618351004,0.0010581618347244,-0.001058161835454,0.0010581618349862,-0.0010581618358033,0.0010581618340772,-0.0010581618361253,0.00105816183432,-0.00091259066588095,0.0009125906647906,-0.00091259066601212,0.00091259066470737,-3.7502889606583e-13,1.4901784760705e-12,-3.1965929345154e-13,1.4082706841796e-12,-0.0017087899473512,0.0017087899484336,-0.0018783150132178,0.0018783150130442,-0.0018783150128736,0.0018783150138994,-0.0018783150127956,0.0018783150139224,-0.0018783150124937,0.001878315014755,-0.0015014962417771,0.001501496241805,-0.0015014962404204,0.001501496243816,-0.0015014962418347,0.0015014962417124,-0.0015014962403287,0.001501496243858,-4.2146469807219e-13,-3.0052242218747e-13,-0.00093011432060274,0.00093011431999711,5.2316113543348e-13,-1.3375373238955e-12,-0.00105816183522,0.0010581618346535,-0.0010581618358731,0.0010581618340487,-0.0010581618354934,0.0010581618350578,-0.001058161836154,0.0010581618343737,-0.00091259066592821,0.00091259066478777,-0.00091259066599742,0.0009125906646686,0.74580972051513,131490,2924,0.0038696426428982,0.0070936524551109,0.0038696426429516,37.194402237119,0.00021275521789695,0.00021275521789695,0.00021275521789695,2450866.6910656,0.014943983482591
38880000,0.99999787469111,0.01582546459919,0.0047740193673684,0.0062774258643717,0.0047740193674497,-0.00092962336552601,0.00092962336457925,-4.0006795650737e-13,-5.1973175490459e-13,5.08355076719e-13,-1.5307462661641e-12,-0.0010588216146216,0.0010588216139337,-0.0010588216150254,0.0010588216142458,-0.0010588216153434,0.0010588216132674,-0.0010588216157151,0.0010588216135599,-0.00091197163719979,0.00091197163578438,-0.00091197163732797,0.00091197163569817,-3.8778447697983e-13,1.5302095178555e-12,-2.9594901778418e-13,1.410941132011e-12,-0.0017104478828544,0.0017104478839632,-0.0018791129094806,0.0018791129093189,-0.0018791129091982,0.001879112910226,-0.0018791129090967,0.0018791129102736,-0.0018791129088566,0.001879112911158,-0.0015037758252931,0.0015037758253869,-0.0015037758239712,0.0015037758273899,-0.0015037758253983,0.0015037758252452,-0.0015037758238554,0.0015037758274568,-5.5280545040825e-13,-4.31864718594e-13,-0.0009296233655667,0.00092962336456417,3.8169260425883e-13,-1.4609578751736e-12,-0.0010588216147497,0.001058821613854,-0.0010588216153977,0.0010588216132549,-0.0010588216150733,0.0010588216143085,-0.0010588216157283,0.0010588216136295,-0.00091197163722814,0.00091197163579457,-0.00091197163730052,0.0009119716356786,0.749969035521,131490,2924,0.0038676167583628,0.0071004882918907,0.0038676167584163,37.193613676146,0.00021274890940917,0.00021274890940917,0.00021274890940917,2429488.8385812,0.014946817714259
