time,ASR_ext,ASR_strain,ASR_strain_xx,ASR_strain_yy,ASR_strain_zz,disp_x_101,disp_x_102,disp_x_103,disp_x_104,disp_x_105,disp_x_106,disp_x_p1_neg,disp_x_p1_pos,disp_x_p2_neg,disp_x_p2_pos,disp_x_p3_neg,disp_x_p3_pos,disp_x_p4_neg,disp_x_p4_pos,disp_x_p5_neg,disp_x_p5_pos,disp_x_p6_neg,disp_x_p6_pos,disp_y_101,disp_y_102,disp_y_103,disp_y_104,disp_y_105,disp_y_106,disp_y_p1_neg,disp_y_p1_pos,disp_y_p2_neg,disp_y_p2_pos,disp_y_p3_neg,disp_y_p3_pos,disp_y_p4_neg,disp_y_p4_pos,disp_y_p5_neg,disp_y_p5_pos,disp_y_p6_neg,disp_y_p6_pos,disp_y_p7_neg,disp_y_p7_pos,disp_y_p8_neg,disp_y_p8_pos,disp_z_101,disp_z_102,disp_z_103,disp_z_104,disp_z_105,disp_z_106,disp_z_p1_neg,disp_z_p1_pos,disp_z_p2_neg,disp_z_p2_pos,disp_z_p3_neg,disp_z_p3_pos,disp_z_p4_neg,disp_z_p4_pos,disp_z_p5_neg,disp_z_p5_pos,disp_z_p6_neg,disp_z_p6_pos,humidity,ndof,nelem,strain_xx,strain_yy,strain_zz,temp,thermal_strain_xx,thermal_strain_yy,thermal_strain_zz,vonmises,vstrain
2419200,0,0,0,0,0,0,0,0,0,0,0,0,0,0,0,0,0,0,0,0,0,0,0,0,0,0,0,0,0,0,0,0,0,0,0,0,0,0,0,0,0,0,0,0,0,0,0,0,0,0,0,0,0,0,0,0,0,0,0,0,0,0,0,0,0,0,0,0,0,0,0,0,0,0,0
3419200,0.15971932813928,0.0026614135266323,0.00088713784221078,0.00088713784221078,0.00088713784221078,-0.00024491856119712,0.00024491855214615,-2.3610024851271e-12,-4.9459786906975e-12,5.4742360333101e-12,-1.3091343943429e-11,-0.00024928959465697,0.00024928959384456,-0.00024928959606024,0.00024928959352274,-0.00024928960053518,0.00024928958761871,-0.00024928960201424,0.00024928958737657,-0.00024484324562462,0.00024484323430666,-0.00024484324843229,0.00024484323205305,-6.0948128775032e-12,1.2479292438976e-11,-1.5438266959777e-11,2.1530484332012e-11,-0.00025895518565969,0.0002589551917875,-0.00026181671426055,0.00026181670212167,-0.00026181670305015,0.00026181671515845,-0.00026181670895442,0.00026181670896295,-0.00026181669774175,0.00026181672200161,-0.00025530812215855,0.00025530809812174,-0.00025530808673214,0.0002553081352497,-0.00025530811017281,0.00025530811040361,-0.00025530809242451,0.00025530812933782,-6.8441951167431e-12,-4.2593618978001e-12,-0.00024491856311295,0.00024491855023415,1.2428163217851e-11,-2.4163716905339e-11,-0.0002492895942549,0.00024928959405645,-0.0002492896063961,0.0002492895819287,-0.00024928959399077,0.00024928959551364,-0.00024928960613492,0.00024928958339266,-0.00024484325083517,0.00024484322967884,-0.00024484325312108,0.00024484322690046,0.75746877217741,122718,2924,0.0010199727979384,0.0010783956999769,0.0010199727979463,31.872947273627,0.00017018357818901,0.00017018357818901,0.00017018357818901,1102263.5566746,0.0031232100992264
4419200,0.351271105372,0.0057220103294083,0.0018638062390031,0.0019943978513789,0.0018638062390262,-0.00046953665684323,0.00046953663749481,-6.919024330762e-12,-9.5066974616838e-12,5.0422795142117e-12,-2.2306697089834e-11,-0.00048387254516286,0.00048387253752593,-0.00048387254772643,0.00048387253836034,-0.00048387255387281,0.00048387252830527,-0.00048387255660071,0.00048387252931331,-0.00047062010906802,0.00047062008533879,-0.00047062011283104,0.00047062008403713,-6.4014372640151e-12,2.1067387354307e-11,-1.2641948355979e-11,2.6831173723119e-11,-0.00053600709669008,0.00053600711096085,-0.00054951221045717,0.0005495122025813,-0.00054951220003338,0.00054951221814194,-0.00054951220389002,0.0005495122140409,-0.00054951219346045,0.00054951222960666,-0.00051975115739216,0.00051975114202857,-0.0005197511211478,0.00051975118309969,-0.00051975114949718,0.00051975115028901,-0.00051975112466512,0.00051975117930639,-1.2196996573951e-11,-9.6095714488944e-12,-0.00046953665953926,0.00046953663480911,7.7618882619945e-12,-3.0889917825942e-11,-0.00048387254662958,0.00048387253584764,-0.00048387255933665,0.00048387252303783,-0.00048387254755029,0.0004838725384882,-0.00048387256032106,0.00048387252575144,-0.00047062011488068,0.00047062008196929,-0.00047062011627669,0.00047062007829399,0.73992840791513,122718,2924,0.0019545017407539,0.0022308556422807,0.0019545017407754,33.606623196848,0.00018405298557478,0.00018405298557478,0.00018405298557478,2174450.1842071,0.0061587598340562
5419200,0.55150441320324,0.0088088254996727,0.0028018718773377,0.0032050817449795,0.0028018718773555,-0.00068094286783722,0.00068094285655617,-3.4296523110349e-12,-6.0197969884369e-12,6.8081041237099e-12,-1.65038838765e-11,-0.0007093225840385,0.0007093225820825,-0.00070932258627836,0.00070932258259204,-0.0007093225914664,0.00070932257424904,-0.00070932259385126,0.00070932257491203,-0.00068258465517747,0.0006825846397247,-0.00068258465861244,0.00068258463808985,-6.5851336375111e-12,1.6952063361395e-11,-1.2366995373251e-11,2.2400579001217e-11,-0.00084348088279999,0.0008434808928558,-0.00087643643751139,0.00087643642831287,-0.0008764364276696,0.00087643644124677,-0.00087643643122967,0.00087643643746852,-0.00087643642138137,0.00087643645040845,-0.00080408766923903,0.0008040876530046,-0.00080408763561219,0.00080408768751068,-0.00080408766184218,0.00080408766062601,-0.00080408763901143,0.00080408768395432,-7.412068831091e-12,-4.8221435544715e-12,-0.00068094286919622,0.00068094285520485,1.0546169409999e-11,-2.3396151994774e-11,-0.00070932258431504,0.00070932258165885,-0.00070932259544611,0.00070932257042816,-0.00070932258487899,0.00070932258394455,-0.00070932259607721,0.00070932257278968,-0.00068258465921983,0.00068258463739805,-0.00068258466099548,0.00068258463409785,0.72499638738019,122718,2924,0.0028333178514639,0.0035082727591117,0.0028333178514799,36.277814904154,0.00020542251923324,0.00020542251923324,0.00020542251923324,2954891.3812928,0.0092171689596877
6419200,0.70768055767732,0.010768404225449,0.0033650538008016,0.0040382966238311,0.0033650538008163,-0.00079479906617413,0.00079479905725599,-2.4513637007569e-12,-5.042894704862e-12,7.8972335684648e-12,-1.6122921720515e-11,-0.00084027173106883,0.00084027173150072,-0.00084027173286769,0.00084027173156837,-0.00084027173874907,0.00084027172342152,-0.00084027174071126,0.00084027172366095,-0.00079144159544526,0.00079144158198519,-0.00079144159833476,0.00079144157980235,-5.3945505384193e-12,1.8842858231262e-11,-1.1431338927501e-11,2.4508732157409e-11,-0.0010577526087876,0.0010577526219053,-0.0011180387186722,0.0011180387118889,-0.0011180387082563,0.0011180387250792,-0.0011180387120076,0.0011180387211223,-0.0011180387015852,0.0011180387343186,-0.0009888813767441,0.00098888136265457,-0.0009888813425643,0.00098888139888419,-0.00098888136901713,0.00098888137063444,-0.00098888134608285,0.00098888139518604,-6.7747578887381e-12,-4.1834568747347e-12,-0.00079479906788639,0.00079479905554982,1.1472160092208e-11,-2.3601130512693e-11,-0.00084027173162655,0.00084027173076739,-0.00084027174312235,0.00084027171916398,-0.00084027173179095,0.00084027173265448,-0.00084027174335416,0.00084027172112709,-0.00079144159937684,0.0007914415787096,-0.00079144160168351,0.00079144157593753,0.59839168540088,122718,2924,0.0033063825701859,0.0043974782085836,0.0033063825701986,36.740412350384,0.00020912329880307,0.00020912329880307,0.00020912329880307,3289035.2152376,0.011071179147875
7419200,0.83279351059903,0.012138095580838,0.003751912427707,0.0046342707254108,0.00375191242772,-0.00086979774176455,0.0008697977327809,-2.3514569844562e-12,-4.9440228365429e-12,7.8311226910479e-12,-1.5895128591203e-11,-0.00092852191517354,0.00092852191572337,-0.00092852191698795,0.00092852191580594,-0.00092852192276625,0.00092852190775602,-0.00092852192473044,0.00092852190799679,-0.00086167210027117,0.00086167208705264,-0.00086167210311304,0.00086167208482019,-5.6899135299886e-12,1.8245890821148e-11,-1.1725426560973e-11,2.3917789622063e-11,-0.0012225446268235,0.0012225446390496,-0.0013099042035176,0.0013099041960252,-0.0013099041931586,0.0013099042090954,-0.0013099041969422,0.0013099042051561,-0.0013099041865767,0.0013099042182322,-0.0011258709221717,0.0011258709073792,-0.0011258708882779,0.0011258709433328,-0.0011258709144301,0.0011258709153409,-0.001125870891815,0.0011258709396401,-6.3411775460846e-12,-3.748840313737e-12,-0.00086979774313241,0.00086979773141816,1.1757838070824e-11,-2.3031971589445e-11,-0.00092852191539125,0.00092852191534681,-0.00092852192679554,0.00092852190383897,-0.00092852191555653,0.00092852191723544,-0.00092852192702601,0.00092852190580138,-0.00086167210381377,0.00086167208405415,-0.00086167210617805,0.00086167208133779,0.52694121020036,122718,2924,0.0036179457171522,0.0050807976306946,0.0036179457171628,40.777849910875,0.000241422799287,0.000241422799287,0.000241422799287,3395693.106721,0.012393014754544
8419200,0.90820228129016,0.012875931039883,0.0039591960068919,0.0049575390260874,0.0039591960069042,-0.00089555200503672,0.00089555199844161,-1.5045381752592e-12,-4.0972680967248e-12,8.2851017377408e-12,-1.4672956486545e-11,-0.0009643927628164,0.00096439276507591,-0.00096439276435509,0.00096439276488273,-0.00096439277016358,0.00096439275737397,-0.00096439277184854,0.00096439275733545,-0.00088491708212374,0.00088491707103236,-0.00088491708489317,0.00088491706872721,-5.5332488748098e-12,1.764505908791e-11,-1.1485676061657e-11,2.324528440193e-11,-0.0013157633117578,0.0013157633235483,-0.0014202267179808,0.0014202267106156,-0.0014202267076595,0.0014202267231116,-0.0014202267113968,0.0014202267192274,-0.001420226701069,0.0014202267317295,-0.0012008704525707,0.0012008704379803,-0.0012008704195026,0.0012008704729842,-0.0012008704449296,0.001200870445836,-0.0012008704229981,0.0012008704693372,-5.4280962047987e-12,-2.8355970362217e-12,-0.00089555200633661,0.00089555199714633,1.2206669094638e-11,-2.166901606136e-11,-0.00096439276299691,0.00096439276474668,-0.00096439277409229,0.00096439275354537,-0.00096439276288396,0.00096439276635714,-0.0009643927740461,0.00096439275523114,-0.00088491708550202,0.00088491706805163,-0.0008849170879359,0.00088491706540464,0.47156008474719,122718,2924,0.0037250051962799,0.0054670930871922,0.0037250051962894,41.436037207658,0.00024668829766126,0.00024668829766126,0.00024668829766126,3307614.4270811,0.013001100916406
9419200,0.94991946417943,0.013228243823592,0.0040582299414068,0.0051117839407663,0.0040582299414189,-0.0008986752520949,0.00089867524670349,-1.0693574642164e-12,-3.6619991128732e-12,8.4935389896111e-12,-1.4007428906191e-11,-0.00097452742965689,0.00097452743278106,-0.00097452743105554,0.00097452743244793,-0.00097452743685887,0.00097452742523747,-0.00097452743840081,0.00097452742505601,-0.00088664823266186,0.00088664822267928,-0.0008866482354123,0.00088664822035533,-5.4412304506153e-12,1.7285096687455e-11,-1.1309260039281e-11,2.2807966055822e-11,-0.0013636105216487,0.0013636105331768,-0.0014781178835939,0.0014781178763237,-0.0014781178733143,0.0014781178884519,-0.0014781178770008,0.0014781178846235,-0.0014781178667146,0.0014781178967576,-0.0012376719904381,0.0012376719760346,-0.0012376719579216,0.0012376720103935,-0.0012376719829026,0.001237671983781,-0.0012376719613699,0.0012376720067966,-4.9530117771254e-12,-2.3606000176428e-12,-0.00089867525335415,0.00089867524544855,1.2378689780701e-11,-2.0884458403139e-11,-0.00097452742982696,0.00097452743246885,-0.00097452744071638,0.00097452742147276,-0.00097452742957222,0.00097452743393742,-0.00097452744052875,0.00097452742301698,-0.00088664823595478,0.00088664821974522,-0.00088664823840559,0.00088664821711539,0.40621133923259,122718,2924,0.0037380806249816,0.0056652878069858,0.0037380806249906,41.14427471976,0.00024435419775808,0.00024435419775808,0.00024435419775808,3179379.054736,0.013228420363623
10419200,0.97077503174879,0.013418611251442,0.0041126636088098,0.0051932840338101,0.0041126636088218,-0.00089370703691936,0.00089370703389332,-2.4493640339042e-13,-2.8374588077006e-12,9.0018946729293e-12,-1.284885191757e-11,-0.00097283633754138,0.0009728363423963,-0.00097283633866373,0.00097283634178704,-0.0009728363445325,0.00097283633507425,-0.00097283634579778,0.00097283633461626,-0.00088144736097085,0.00088144735303823,-0.00088144736371092,0.00088144735070416,-5.2721061466585e-12,1.6820814370961e-11,-1.1023463476052e-11,2.223635681221e-11,-0.001383971872973,0.0013839718842139,-0.0015033722564474,0.0015033722493981,-0.0015033722461412,0.0015033722609198,-0.0015033722497561,0.0015033722571679,-0.0015033722394433,0.0015033722686955,-0.0012523558608118,0.0012523558467471,-0.0012523558290383,0.0012523558801749,-0.0012523558534228,0.0012523558543422,-0.0012523558324206,0.0012523558766471,-4.0991872873481e-12,-1.5068972594407e-12,-0.00089370703814888,0.00089370703266798,1.2811017485151e-11,-1.9586848451401e-11,-0.00097283633772269,0.00097283634207966,-0.00097283634832027,0.00097283633137268,-0.00097283633718996,0.00097283634327014,-0.00097283634785702,0.00097283633264121,-0.00088144736418754,0.00088144735015915,-0.00088144736664677,0.00088144734753792,0.43665130715676,122718,2924,0.0037175233367328,0.0057496076622433,0.0037175233367415,38.087766249746,0.00021990212999797,0.00021990212999797,0.00021990212999797,3113366.8828005,0.013272209813207
11419200,0.98282369015128,0.013520579530017,0.0041418460973736,0.0052368873352581,0.0041418460973855,-0.00088854608362196,0.00088854607901658,-7.7606451786463e-13,-3.3683827150056e-12,8.4117642451264e-12,-1.3320908025992e-11,-0.00097305084167778,0.00097305084519499,-0.00097305084299818,0.00097305084478388,-0.00097305084863756,0.00097305083791346,-0.00097305085009566,0.00097305083764843,-0.00087634020169908,0.00087634019261668,-0.00087634020443317,0.00087634019027702,-5.2322140123946e-12,1.672556542781e-11,-1.0865268602914e-11,2.202569230669e-11,-0.0014010796275942,0.001401079638782,-0.0015222587185474,0.0015222587115937,-0.0015222587085547,0.0015222587232044,-0.0015222587120955,0.0015222587195313,-0.0015222587020964,0.0015222587311479,-0.0012665454512988,0.0012665454375037,-0.0012665454199243,0.0012665454706026,-0.0012665454440618,0.0012665454449428,-0.0012665454232336,0.0012665454671506,-4.6096621338684e-12,-2.0175766585357e-12,-0.00088854608483069,0.0008885460778119,1.21283926624e-11,-1.9921107806184e-11,-0.00097305084187905,0.00097305084486164,-0.0009730508523649,0.00097305083426939,-0.00097305084154328,0.00097305084624892,-0.0009730508520953,0.00097305083573139,-0.00087634020485069,0.00087634018979063,-0.00087634020731446,0.00087634018717442,0.40445605707229,122718,2924,0.0036961695460753,0.0058204097900877,0.0036961695460837,37.62614127246,0.00021620913017968,0.00021620913017968,0.00021620913017968,2995581.120152,0.013300699049559
12419200,0.98973344996802,0.013586362703778,0.0041609123380606,0.0052645380276449,0.0041609123380725,-0.00088554569000929,0.00088554568579723,-6.4205692052827e-13,-3.2342597830148e-12,8.488485609062e-12,-1.3125443085547e-11,-0.00097149781853595,0.00097149782233722,-0.00097149781980788,0.00097149782187773,-0.00097149782545823,0.00097149781509692,-0.00097149782686692,0.00097149781478255,-0.0008733769183692,0.00087337690962909,-0.00087337692110298,0.00087337690728934,-5.2047558218117e-12,1.6636518736361e-11,-1.0751905066092e-11,2.1852816764389e-11,-0.0014092719979159,0.0014092720090438,-0.0015323316378347,0.0015323316309562,-0.0015323316278785,0.0015323316424131,-0.0015323316313654,0.0015323316387973,-0.0015323316214027,0.0015323316502602,-0.0012723690943803,0.0012723690807668,-0.0012723690632669,0.0012723691135668,-0.0012723690872533,0.0012723690880922,-0.0012723690665236,0.0012723691101702,-4.4604433394589e-12,-1.8684715959459e-12,-0.00088554569120265,0.00088554568460786,1.2138829255334e-11,-1.9625476944121e-11,-0.00097149781875125,0.00097149782199206,-0.00097149782914188,0.00097149781149484,-0.00097149781836618,0.00097149782332991,-0.00097149782882316,0.0009714978129076,-0.00087337692147747,0.0008733769068455,-0.00087337692394099,0.00087337690422928,0.45322610794666,122718,2924,0.0036837463320896,0.0058543268890253,0.0036837463320979,36.800802159216,0.00020960641727373,0.00020960641727373,0.00020960641727373,2956479.2026754,0.013309893850393
13419200,0.99359198684576,0.013619996640282,0.0041706370777758,0.0052787224847186,0.0041706370777876,-0.00087680044176149,0.00087680043858165,-2.9373096789703e-13,-2.8857227421056e-12,8.7425644427162e-12,-1.2668028735712e-11,-0.00096666417499851,0.00096666417951615,-0.00096666417615684,0.00096666417894324,-0.00096666418185514,0.00096666417234566,-0.00096666418314958,0.00096666417191719,-0.0008648263326683,0.00086482632478578,-0.00086482633539255,0.00086482632243688,-5.134277445466e-12,1.650926882964e-11,-1.0597317553341e-11,2.164492558591e-11,-0.0014137643251464,0.0014137643362205,-0.001537010702619,0.0015370106958777,-0.0015370106926471,0.0015370107070747,-0.0015370106960815,0.0015370107035144,-0.0015370106861031,0.0015370107147174,-0.0012758362497062,0.0012758362363267,-0.0012758362188861,0.0012758362687122,-0.0012758362426867,0.0012758362435422,-0.001275836222092,0.0012758362653683,-4.1029607603063e-12,-1.5111995691846e-12,-0.00087680044294571,0.00087680043740139,1.2322646698661e-11,-1.9076955752538e-11,-0.0009666641752335,0.0009666641791539,-0.00096666418550136,0.00096666416877854,-0.00096666417473416,0.00096666418037736,-0.000966664185069,0.00096666417007754,-0.00086482633573085,0.0008648263220287,-0.00086482633820269,0.00086482631942115,0.4150894025916,122718,2924,0.0036474888082781,0.0058728803692923,0.0036474888082864,34.786205539327,0.00019348964431462,0.00019348964431462,0.00019348964431462,2877080.9779391,0.01325523138764
14419200,0.99582019092729,0.013637941347785,0.0041758366643605,0.0052862680190518,0.0041758366643723,-0.00087133567290308,0.00087133566989249,-2.3540731214467e-13,-2.8272835467992e-12,8.7290132464019e-12,-1.2534779424034e-11,-0.00096094753774489,0.0009609475423765,-0.00096094753887913,0.00096094754177957,-0.00096094754455491,0.00096094753525573,-0.00096094754582466,0.00096094753480265,-0.00085926754918856,0.00085926754148457,-0.00085926755192073,0.00085926753914384,-5.0967932376416e-12,1.6401811524152e-11,-1.0488416586073e-11,2.1468344980327e-11,-0.0014122944951348,0.0014122945061409,-0.0015370404734581,0.0015370404667917,-0.0015370404635509,0.0015370404778649,-0.0015370404669405,0.0015370404743521,-0.0015370404570268,0.0015370404854313,-0.0012727945014772,0.0012727944882618,-0.0012727944709342,0.0012727945203644,-0.0012727944945487,0.0012727944953827,-0.0012727944740967,0.001272794517066,-4.0322801548444e-12,-1.4406359895594e-12,-0.00087133567407488,0.00087133566872462,1.2254397048347e-11,-1.8861273862611e-11,-0.00096094753799192,0.00096094754200415,-0.00096094754816538,0.00096094753172301,-0.00096094753746786,0.0009609475432028,-0.0009609475477085,0.00096094753299741,-0.00085926755222396,0.00085926753877064,-0.00085926755468734,0.00085926753615492,0.38312450045663,122718,2924,0.0036248104739131,0.0058667969692871,0.0036248104739212,32.634956999041,0.00017627965599233,0.00017627965599233,0.00017627965599233,2875351.966496,0.013203108001136
15419200,0.99697993824192,0.013650435150173,0.0041795019231837,0.005291431303794,0.0041795019231955,-0.00085972994113925,0.00085972994074724,6.559772287283e-13,-1.9356463966856e-12,9.3744932645627e-12,-1.1370134297261e-11,-0.00094929056042042,0.00094929056698473,-0.00094929056124907,0.00094929056608237,-0.00094929056705923,0.00094929056003938,-0.00094929056802531,0.00094929055928282,-0.00084766835182692,0.00084766834629702,-0.00084766835456299,0.0008476683439607,-4.9433833065627e-12,1.6056844415601e-11,-1.0232023124599e-11,2.1027384745477e-11,-0.0014035119987264,0.0014035120095473,-0.0015290177841189,0.0015290177776815,-0.0015290177741002,0.001529017788165,-0.0015290177774255,0.0015290177847196,-0.0015290177674003,0.0015290177952091,-0.0012631958571388,0.001263195844251,-0.0012631958271682,0.0012631958755647,-0.0012631958503405,0.001263195851238,-0.0012631958302713,0.0012631958723284,-3.1260079878959e-12,-5.3461557962572e-13,-0.00085972994229631,0.00085972993959408,1.282061663308e-11,-1.7584114545312e-11,-0.00094929056068821,0.00094929056659571,-0.00094929057062081,0.00094929055655202,-0.00094929055985771,0.00094929056748777,-0.00094929056986076,0.00094929055752307,-0.00084766835481929,0.00084766834363394,-0.00084766835727732,0.00084766834101336,0.51103778709309,122718,2924,0.0035766338348212,0.0058304172254184,0.0035766338348293,27.046978035692,0.00013157582428554,0.00013157582428554,0.00013157582428554,2888834.994404,0.01306863130993
16419200,0.99772509422706,0.013657732253512,0.0041816253145078,0.0052944816244846,0.0041816253145196,-0.00084718524635457,0.00084718524389396,-4.7995735969094e-14,-2.6393147670576e-12,8.7027951944042e-12,-1.2111393711118e-11,-0.00094256456289013,0.00094256456774441,-0.00094256456397936,0.00094256456710285,-0.00094256456955751,0.00094256456077534,-0.00094256457077959,0.00094256456027498,-0.00083559659257945,0.00083559658545439,-0.00083559659530036,0.00083559658310347,-4.928249298308e-12,1.6121441677494e-11,-1.013061586958e-11,2.1005830403947e-11,-0.0014053231939678,0.0014053232048684,-0.0015293687254111,0.0015293687190572,-0.0015293687157019,0.0015293687297899,-0.0015293687189723,0.001529368726402,-0.0015293687092565,0.0015293687371408,-0.0012653036102095,0.0012653035975452,-0.0012653035804121,0.0012653036287844,-0.0012653036035232,0.0012653036044185,-0.0012653035834596,0.0012653036256045,-3.8285247764902e-12,-1.2374416528893e-12,-0.00084718524751029,0.00084718524274212,1.2064808810725e-11,-1.8236664805202e-11,-0.00094256456318576,0.00094256456732837,-0.00094256457308873,0.00094256455731764,-0.00094256456261553,0.0009425645684805,-0.00094256457258518,0.000942564558545,-0.00083559659552668,0.0008355965828065,-0.0008355965979988,0.00083559658020062,0.46538451425637,122718,2924,0.0035246104242372,0.0058378326400595,0.0035246104242453,24.407508046773,0.00011046006437418,0.00011046006437418,0.00011046006437418,2779506.2202371,0.012970767184962
17419200,0.99822560169167,0.013663279354056,0.0041832549452128,0.005296769463619,0.0041832549452246,-0.00084140314722799,0.00084140314463531,-9.5230147769648e-14,-2.68647828408e-12,8.6732592731769e-12,-1.2180772326943e-11,-0.00093529686354301,0.00093529686835158,-0.00093529686463592,0.00093529686771376,-0.00093529687022382,0.00093529686136975,-0.00093529687144927,0.00093529686087281,-0.00082967154717831,0.00082967153993338,-0.00082967154991284,0.00082967153759623,-4.9591584128793e-12,1.6130437137983e-11,-1.0105757805448e-11,2.095881754604e-11,-0.0014009826113898,0.0014009826222681,-0.0015269163033352,0.0015269162969696,-0.0015269162936555,0.0015269163076849,-0.0015269162968908,0.0015269163043348,-0.0015269162872045,0.0015269163150561,-0.0012591773944048,0.0012591773818022,-0.0012591773646969,0.0012591774129896,-0.0012591773877904,0.0012591773886001,-0.0012591773677092,0.0012591774098477,-3.8627061440376e-12,-1.2716889743042e-12,-0.00084140314837054,0.00084140314349661,1.1995188378758e-11,-1.8236547723301e-11,-0.00093529686384423,0.00093529686793049,-0.00093529687372434,0.00093529685794277,-0.00093529686327721,0.00093529686908577,-0.00093529687322411,0.0009352968591734,-0.00082967155010804,0.00082967153733013,-0.00082967155256672,0.00082967153471089,0.52521873377382,122718,2924,0.0035006004843197,0.005819875647415,0.0035006004843277,21.970372473322,9.0962979786576e-05,9.0962979786576e-05,9.0962979786576e-05,2796925.9475263,0.012903927385936
18419200,0.99853656578082,0.013666590665394,0.0041842238199409,0.0052981430255002,0.0041842238199527,-0.0008278631182324,0.00082786311726826,4.4953028921706e-13,-2.1414192792957e-12,9.1322137138308e-12,-1.1527324289332e-11,-0.00092450406075627,0.00092450406674411,-0.00092450406166611,0.00092450406592342,-0.00092450406737228,0.00092450405982892,-0.00092450406841533,0.00092450405914979,-0.00081630177160245,0.00081630176566074,-0.00081630177433346,0.00081630176332066,-4.8893055174255e-12,1.6016369240326e-11,-9.9813187246232e-12,2.07929526131e-11,-0.0013961381653325,0.0013961381761692,-0.0015219063038443,0.001521906297605,-0.0015219062940489,0.0015219063080022,-0.0015219062972499,0.0015219063046878,-0.001521906287448,0.0015219063150911,-0.0012539502199897,0.001253950207565,-0.0012539501904788,0.001253950238385,-0.0012539502134449,0.0012539502142921,-0.0012539501934585,0.0012539502352766,-3.3148973498085e-12,-7.2417808273902e-13,-0.0008278631193721,0.00082786311613239,1.2405586076684e-11,-1.7527564599161e-11,-0.0009245040610733,0.00092450406630903,-0.00092450407085139,0.00092450405642165,-0.0009245040603229,0.00092450406728074,-0.00092450407016926,0.00092450405747017,-0.00081630177450846,0.0008163017630743,-0.00081630177696953,0.0008163017604581,0.50516361584657,122718,2924,0.0034444133424446,0.0057997652634126,0.0034444133424526,17.468055197384,5.4944441579069e-05,5.4944441579069e-05,5.4944441579069e-05,2747545.5954523,0.012769754503159
19419200,0.99879421512713,0.01367014769271,0.0041852748733425,0.0052995979460133,0.0041852748733543,-0.00082679322389274,0.0008267932195245,-6.9215086997192e-13,-3.2830871523556e-12,8.1273724772173e-12,-1.284305138889e-11,-0.00092278815617504,0.00092278815962107,-0.00092278815747774,0.00092278815919326,-0.00092278816289791,0.00092278815260035,-0.00092278816432984,0.00092278815231009,-0.00081513942511082,0.00081513941647966,-0.00081513942784845,0.00081513941414625,-4.9932226075357e-12,1.6197330270914e-11,-1.0063219516728e-11,2.0948047933868e-11,-0.0013969871732175,0.0013969871841276,-0.0015238959556844,0.0015238959493195,-0.0015238959462488,0.0015238959602595,-0.0015238959494353,0.0015238959569609,-0.0015238959399932,0.0015238959679068,-0.0012536846570873,0.0012536846446073,-0.0012536846275073,0.0012536846758131,-0.0012536846505724,0.0012536846513027,-0.0012536846304698,0.001253684672723,-4.4494734686986e-12,-1.8587662012626e-12,-0.00082679322502526,0.00082679321839576,1.1383794879939e-11,-1.88105889735e-11,-0.00092278815649204,0.00092278815918468,-0.00092278816636337,0.00092278814920834,-0.00092278815613439,0.00092278816054911,-0.00092278816606988,0.00092278815064548,-0.0008151394280086,0.00081513941391532,-0.00081513943046342,0.00081513941129293,0.65325215552177,122718,2924,0.0034399728615984,0.005803292396317,0.0034399728616063,17.551688956141,5.5613511649125e-05,5.5613511649125e-05,5.5613511649125e-05,2742289.0296152,0.012764327815256
20419200,0.99901846550071,0.013673464381638,0.0041862531039939,0.005300958173638,0.0041862531040057,-0.0008213442646209,0.0008213442595375,-9.3994155748944e-13,-3.5307406233906e-12,8.0455161929442e-12,-1.3267773443335e-11,-0.00092261688003747,0.00092261688299406,-0.00092261688142334,0.00092261688264948,-0.00092261688687199,0.00092261687585965,-0.00092261688838579,0.00092261687565137,-0.00081005819089072,0.00081005818159458,-0.00081005819361742,0.00081005817925048,-5.0890971786333e-12,1.6437406495573e-11,-1.0168707058862e-11,2.1193590491535e-11,-0.0014050364389347,0.0014050364499852,-0.0015307294775835,0.0015307294711279,-0.0015307294681248,0.0015307294822801,-0.0015307294713164,0.0015307294789758,-0.0015307294618511,0.001530729490134,-0.001261928480095,0.0012619284675232,-0.0012619284501931,0.0012619284990954,-0.00126192847357,0.0012619284742303,-0.0012619284531572,0.0012619284960025,-4.7067110808544e-12,-2.116143926785e-12,-0.00082134426576288,0.0008213442583993,1.1296915445811e-11,-1.9250729203989e-11,-0.00092261688036012,0.0009226168825502,-0.00092261689034961,0.00092261687245692,-0.00092261688008587,0.00092261688399796,-0.0009226168901382,0.00092261687397606,-0.00081005819378909,0.0008100581790079,-0.00081005819625488,0.00081005817639669,0.70012779305903,122718,2924,0.0034174056604186,0.005836552832843,0.0034174056604265,18.599612989575,6.3996903916603e-05,6.3996903916603e-05,6.3996903916603e-05,2624848.2044919,0.012752325484376
21419200,0.99917094195463,0.013675559305308,0.0041868715147088,0.0053018162758786,0.0041868715147206,-0.00080953663627333,0.00080953663467532,2.1877051156398e-13,-2.371720464944e-12,9.0863303030375e-12,-1.1945898119836e-11,-0.00091206689337334,0.0009120668989374,-0.00091206689435376,0.00091206689818759,-0.0009120669001118,0.00091206689189988,-0.00091206690122315,0.00091206689128934,-0.00079828700463493,0.00079828699807169,-0.00079828700737034,0.00079828699573692,-5.007213238955e-12,1.6263142466279e-11,-1.0089096255623e-11,2.1025588153303e-11,-0.0014015293454129,0.0014015293563745,-0.00152846111175,0.0015284611053992,-0.0015284611019132,0.0015284611159832,-0.0015284611051075,0.0015284611126765,-0.0015284610952642,0.0015284611232665,-0.0012567660159729,0.0012567660034604,-0.0012567659861436,0.0012567660346308,-0.0012567660094426,0.0012567660101722,-0.0012567659891127,0.001256766031533,-3.5460164216324e-12,-9.5574400855894e-13,-0.00080953663741349,0.00080953663353887,1.2345544587381e-11,-1.7932981852729e-11,-0.00091206689369384,0.00091206689849801,-0.00091206690358767,0.00091206688849651,-0.00091206689301391,0.00091206689953984,-0.00091206690297442,0.00091206688961358,-0.00079828700754217,0.0007982869954936,-0.00079828700999812,0.00079828699287309,0.64990944923706,122718,2924,0.0033684022980178,0.0058220049891973,0.0033684022980256,15.218210660037,3.6945685280296e-05,3.6945685280296e-05,3.6945685280296e-05,2585900.0994314,0.012638345001084
22419200,0.99929721788312,0.013677339843629,0.0041873987478742,0.0053025423478683,0.004187398747886,-0.00080815536128777,0.00080815535739431,-5.4286561251935e-13,-3.1333718059912e-12,8.3731650732017e-12,-1.278610245217e-11,-0.00090864852441042,0.00090864852827698,-0.00090864852565191,0.00090864852778825,-0.00090864853119431,0.00090864852119596,-0.00090864853256415,0.00090864852084394,-0.00079662379171538,0.00079662378337182,-0.00079662379445833,0.00079662378104456,-5.0600355958565e-12,1.6321015492415e-11,-1.0144378037391e-11,2.1084296771559e-11,-0.0014005492368134,0.0014005492477786,-0.00152952273258,0.001529522726141,-0.0015295227230034,0.0015295227370778,-0.0015295227261992,0.00152952273377,-0.001529522716616,0.0015295227447128,-0.0012540389914344,0.0012540389788566,-0.001254038961619,0.0012540390102578,-0.0012540389849015,0.0012540389855702,-0.0012540389645889,0.0012540390071603,-4.3001571772676e-12,-1.7098814407663e-12,-0.00080815536242042,0.00080815535626537,1.164177417532e-11,-1.8766846934789e-11,-0.00090864852472258,0.00090864852784556,-0.00090864853466389,0.00090864851779938,-0.00090864852430357,0.00090864852914834,-0.00090864853430898,0.0009086485191748,-0.00079662379462346,0.00079662378080827,-0.00079662379707205,0.00079662377818046,0.66642562144511,122718,2924,0.0033626572654993,0.0058179778490958,0.003362657265507,14.858153797116,3.4065230376931e-05,3.4065230376931e-05,3.4065230376931e-05,2598786.210213,0.012622621144608
23419200,0.99940936989426,0.013678830741876,0.004187838941807,0.00530315285825,0.0041878389418188,-0.00080771989030361,0.00080771988547858,-8.5517372613262e-13,-3.4456741970656e-12,8.1603341577606e-12,-1.3211473369146e-11,-0.00090887539962158,0.00090887540282279,-0.00090887540097145,0.00090887540244245,-0.00090887540647532,0.00090887539567066,-0.00090887540795255,0.00090887539542603,-0.00079614097902033,0.00079614096989885,-0.0007961409817585,0.00079614096756681,-5.1308563735068e-12,1.645519771677e-11,-1.0235922181957e-11,2.1236194719417e-11,-0.0014036776675463,0.0014036776785721,-0.0015329732169895,0.0015329732104565,-0.0015329732074569,0.0015329732216039,-0.0015329732106651,0.001532973218283,-0.001532973201126,0.0015329732294364,-0.0012567531075291,0.0012567530948428,-0.0012567530775183,0.0012567531265246,-0.0012567531009708,0.0012567531015828,-0.0012567530804987,0.0012567531234159,-4.6137336859558e-12,-2.023462243441e-12,-0.00080771989143753,0.00080771988434834,1.1444986451755e-11,-1.9211815549943e-11,-0.00090887539992776,0.000908875402396,-0.00090887540995305,0.00090887539226713,-0.00090887539961729,0.00090887540380731,-0.00090887540970544,0.00090887539374984,-0.00079614098193106,0.00079614096732325,-0.00079614098438473,0.00079614096470053,0.62875729639221,122718,2924,0.0033608606042802,0.0058309260612189,0.0033608606042878,15.707577897846,4.0860623182768e-05,4.0860623182768e-05,4.0860623182768e-05,2568277.6695954,0.012632097426467
24419200,0.99951525428841,0.013680315433066,0.0041882789589131,0.0053037575152282,0.0041882789589249,-0.00081207593622163,0.00081207593034327,-1.2104878549858e-12,-3.8010982562691e-12,7.9354926735724e-12,-1.3713784994458e-11,-0.00091206333403367,0.00091206333650096,-0.00091206333550283,0.00091206333623985,-0.00091206334097805,0.00091206332925569,-0.00091206334257394,0.00091206332912966,-0.00080035518796501,0.00080035517794823,-0.00080035519070042,0.00080035517561321,-5.2267541497779e-12,1.662862430106e-11,-1.0375330040789e-11,2.1449061334135e-11,-0.001407574047974,0.0014075740590736,-0.0015377995362747,0.0015377995296033,-0.0015377995267653,0.0015377995410126,-0.0015377995300004,0.0015377995376635,-0.0015377995204845,0.0015377995490788,-0.0012599074932263,0.0012599074803594,-0.0012599074629227,0.0012599075124373,-0.0012599074866133,0.0012599074871552,-0.0012599074659274,0.0012599075093038,-4.9697725003909e-12,-2.3793926347177e-12,-0.00081207593735621,0.00081207592921236,1.1258753082233e-11,-1.9755269554414e-11,-0.00091206333432545,0.00091206333608656,-0.00091206334447116,0.00091206332583863,-0.00091206333413453,0.00091206333761748,-0.00091206334434194,0.00091206332743979,-0.0008003551908872,0.00080035517535575,-0.00080035519334443,0.00080035517273637,0.66255127740754,122718,2924,0.0033789426992425,0.0058470848104531,0.0033789426992501,17.886371122464,5.8290968979715e-05,5.8290968979715e-05,5.8290968979715e-05,2569162.7803872,0.012685076730024
25419200,0.99961178207246,0.013681910032474,0.0041887534017181,0.0053044032290262,0.0041887534017299,-0.00081388110505905,0.00081388109927828,-1.1800345279611e-12,-3.7706227536523e-12,8.0322439274469e-12,-1.3751495813007e-11,-0.00091533823968337,0.00091533824226356,-0.00091533824113955,0.00091533824198947,-0.00091533824667051,0.00091533823497392,-0.00091533824825367,0.00091533823483514,-0.00080221826783254,0.00080221825784226,-0.0008022182705655,0.00080221825550484,-5.2704834021146e-12,1.6719576375477e-11,-1.0465229412072e-11,2.1584412022794e-11,-0.0014133170180307,0.0014133170291759,-0.0015432376995359,0.0015432376927933,-0.0015432376899405,0.0015432377042626,-0.0015432376932045,0.001543237700883,-0.0015432376836025,0.0015432377123583,-0.0012657081905276,0.0012657081775289,-0.0012657081599993,0.0012657082098255,-0.0012657081838559,0.0012657081843857,-0.0012657081630315,0.0012657082066628,-4.9459789037396e-12,-2.3556216256116e-12,-0.00081388110620032,0.00081388109814065,1.1391776871389e-11,-1.9844801422218e-11,-0.00091533823996612,0.00091533824185728,-0.00091533825018518,0.00091533823153593,-0.00091533823976249,0.00091533824337548,-0.00091533825004329,0.00091533823312443,-0.00080221827077369,0.00080221825522587,-0.00080221827323345,0.00080221825260908,0.77991302017261,122718,2924,0.0033864557652063,0.0058708499145245,0.0033864557652139,19.931081930845,7.464865544676e-05,7.464865544676e-05,7.464865544676e-05,2526848.0831762,0.012724367418533
26419200,0.99969091196372,0.01368330052216,0.0041891676020483,0.0053049653180519,0.0041891676020601,-0.00080903738348235,0.00080903737897938,-7.5370766592464e-13,-3.34418045365e-12,8.4229217884623e-12,-1.3272610266161e-11,-0.00091431613469718,0.00091431613822798,-0.00091431613600781,0.00091431613780842,-0.0009143161416542,0.00091431613096944,-0.00091431614309248,0.00091431613068588,-0.00079764692988094,0.00079764692089034,-0.00079764693261348,0.0007976469185527,-5.2392229453354e-12,1.6671110826655e-11,-1.0465791041974e-11,2.1569531889136e-11,-0.0014184494689833,0.0014184494801128,-0.0015475830788359,0.0015475830721191,-0.0015475830690787,0.001547583083407,-0.0015475830723634,0.0015475830800055,-0.0015475830625997,0.0015475830912994,-0.0012708629564798,0.0012708629434494,-0.0012708629259001,0.0012708629756712,-0.0012708629497663,0.0012708629503498,-0.0012708629289537,0.0012708629724856,-4.5273358106457e-12,-1.9370924555081e-12,-0.00080903738463136,0.000809037377834,1.1806427115874e-11,-1.9407245512596e-11,-0.00091431613497711,0.00091431613782541,-0.00091431614518608,0.0009143161275129,-0.00091431613462795,0.00091431613919799,-0.00091431614489975,0.00091431612895687,-0.00079764693284014,0.000797646918255,-0.00079764693529955,0.00079764691563807,0.82922923068302,122718,2924,0.0033663870814856,0.0058920466669798,0.0033663870814931,20.395173347779,7.8361386782229e-05,7.8361386782229e-05,7.8361386782229e-05,2442959.9739148,0.012705202452619
27419200,0.99975993157782,0.013684393638173,0.0041894930509905,0.0053054075361801,0.0041894930510023,-0.00080885708873928,0.00080885708313856,-1.1210938726753e-12,-3.7115465371643e-12,8.0956227155331e-12,-1.3695025420492e-11,-0.00091518602104224,0.0009151860237528,-0.0009151860224779,0.00091518602345829,-0.00091518602803254,0.00091518601646247,-0.00091518602959422,0.00091518601630231,-0.00079745305314116,0.00079745304328494,-0.00079745305586961,0.00079745304094317,-5.269614458072e-12,1.6727142085527e-11,-1.0522887297722e-11,2.1651428740185e-11,-0.0014242221708137,0.001424222181968,-0.0015541193280056,0.0015541193212309,-0.0015541193183459,0.001554119332716,-0.0015541193216477,0.0015541193292969,-0.0015541193119813,0.001554119340788,-0.0012755679158813,0.0012755679027707,-0.0012755678852194,0.0012755679351805,-0.0012755679091333,0.0012755679097061,-0.0012755678882894,0.0012755679319781,-4.8963674193363e-12,-2.3061434459596e-12,-0.00080885708988988,0.00080885708199155,1.150288794761e-11,-1.985750377406e-11,-0.00091518602131486,0.00091518602335749,-0.0009151860315745,0.00091518601299575,-0.0009151860210907,0.00091518602485504,-0.00091518603141175,0.00091518601456324,-0.00079745305610658,0.00079745304063514,-0.00079745305857011,0.00079745303802233,0.74718867332314,122718,2924,0.0033656599548481,0.0059159405752124,0.0033656599548556,22.256950457229,9.3255603657829e-05,9.3255603657829e-05,9.3255603657829e-05,2395431.5439706,0.012727929880765
28419200,0.99981665010149,0.013685416486512,0.0041897997116778,0.0053058170631446,0.0041897997116896,-0.00081205834754989,0.00081205834249182,-9.4047980575221e-13,-3.5310453439185e-12,8.2643689961118e-12,-1.3497176317587e-11,-0.00091552253488987,0.00091552253803491,-0.00091552253625798,0.00091552253767282,-0.00091552254186954,0.00091552253075473,-0.00091552254336457,0.00091552253052786,-0.0008003299735537,0.00080032996411705,-0.00080032997629205,0.00080032996178505,-5.2707113363278e-12,1.6701667363762e-11,-1.0547908533341e-11,2.1649794260705e-11,-0.0014251639221727,0.0014251639333004,-0.0015571321004237,0.0015571320936276,-0.0015571320906833,0.0015571321050423,-0.0015571320940004,0.0015571321016073,-0.0015571320842536,0.0015571321130281,-0.0012748933077251,0.0012748932945549,-0.0012748932770238,0.0012748933269732,-0.0012748933009458,0.0012748933015219,-0.0012748932801095,0.0012748933237554,-4.712188869394e-12,-2.1218545317417e-12,-0.00081205834869681,0.00081205834134847,1.1699262183806e-11,-1.9680308290201e-11,-0.00091552253515083,0.00091552253765128,-0.0009155225454158,0.00091552252728361,-0.00091552253485906,0.00091552253908132,-0.00091552254518623,0.00091552252878439,-0.00080032997653332,0.00080032996147262,-0.0008003299789873,0.00080032995885007,0.8493285419621,122718,2924,0.003378932933169,0.0059198890489057,0.0033789329331765,23.444427179106,0.00010275541743285,0.00010275541743285,0.00010275541743285,2422556.5655068,0.012758798599269
29419200,0.99986273570507,0.013686010439378,0.0041899754510355,0.005306059537295,0.0041899754510473,-0.00081026746900754,0.00081026746385113,-9.7208250391442e-13,-3.5625421197651e-12,8.2347054519451e-12,-1.3530923757214e-11,-0.00091700684154215,0.00091700684459491,-0.00091700684292587,0.00091700684424847,-0.00091700684852394,0.00091700683731395,-0.00091700685003375,0.00091700683710194,-0.00079869265445982,0.00079869264495002,-0.00079869265719156,0.00079869264261164,-5.2683314972656e-12,1.670611275737e-11,-1.0559739936605e-11,2.1668938911143e-11,-0.0014311228665546,0.0014311228776895,-0.0015621519875088,0.0015621519807081,-0.0015621519777737,0.0015621519921494,-0.0015621519810998,0.0015621519887046,-0.0015621519713581,0.001562152000152,-0.0012812669317969,0.0012812669186045,-0.0012812669010636,0.001281266951052,-0.0012812669249994,0.001281266925591,-0.0012812669041584,0.001281266947824,-4.7482115189268e-12,-2.157984692696e-12,-0.00081026747015897,0.00081026746270326,1.167853708165e-11,-1.9733192895201e-11,-0.00091700684180291,0.00091700684421184,-0.00091700685207871,0.0009170068338337,-0.00091700684152675,0.00091700684565741,-0.00091700685186423,0.0009170068353495,-0.00079869265744197,0.0007986926422899,-0.00079869265990199,0.00079869263967364,0.60881578646039,122718,2924,0.0033715322708882,0.0059445160409199,0.0033715322708957,24.783777898859,0.00011347022319088,0.00011347022319088,0.00011347022319088,2348434.3251053,0.01276876533978
30419200,0.99989939394696,0.013686410538323,0.0041900941569421,0.0053062222244272,0.0041900941569539,-0.00081980481949734,0.0008198048143052,-9.8355814415031e-13,-3.5742665258675e-12,8.2127983252369e-12,-1.3534986927205e-11,-0.0009187923733292,0.00091879237639555,-0.00091879237470831,0.00091879237604437,-0.00091879238030419,0.00091879236911958,-0.0009187923818106,0.00091879236890404,-0.00080768935572954,0.00080768934619633,-0.00080768935847662,0.00080768934387279,-5.2799762297623e-12,1.6678624861812e-11,-1.058761479093e-11,2.1656591347177e-11,-0.0014277690954868,0.0014277691065816,-0.0015623467284879,0.0015623467216478,-0.0015623467187501,0.0015623467330955,-0.0015623467220863,0.0015623467296405,-0.0015623467123419,0.0015623467410942,-0.0012756196198939,0.0012756196066408,-0.0012756195891654,0.0012756196391228,-0.001275619613075,0.0012756196136475,-0.0012756195922706,0.0012756196358856,-4.7498369692704e-12,-2.1593596359865e-12,-0.00081980482063874,0.00081980481316734,1.1683214056419e-11,-1.9743095072476e-11,-0.00091879237357444,0.00091879237602731,-0.00091879238385523,0.00091879236564398,-0.00091879237329367,0.00091879237746841,-0.00091879238363679,0.00091879236715594,-0.00080768935872255,0.00080768934355604,-0.0008076893611684,0.00080768934092511,0.51512748248588,122718,2924,0.0034110647567404,0.0059307517571731,0.0034110647567478,26.134523740908,0.00012427618992726,0.00012427618992726,0.00012427618992726,2471602.5474224,0.012834865509394
31419200,0.99992907121111,0.013686828869897,0.0041902190573916,0.0053063907551017,0.0041902190574034,-0.00082862536952397,0.0008286253635339,-1.2506881029987e-12,-3.8415781930895e-12,8.0016182490697e-12,-1.3866919610419e-11,-0.00092581419202471,0.00092581419448787,-0.00092581419350051,0.00092581419423326,-0.0009258141990393,0.0009258141871703,-0.00092581420064219,0.00092581418705111,-0.00081629103848998,0.00081629102831207,-0.00081629104123102,0.00081629102598214,-5.3186218138721e-12,1.6754280285885e-11,-1.0647076680292e-11,2.1750883819547e-11,-0.0014297864254762,0.0014297864366061,-0.0015640246648077,0.0015640246579077,-0.0015640246551287,0.0015640246695216,-0.0015640246584772,0.001564024666053,-0.0015640246487916,0.0015640246776729,-0.0012785629459674,0.0012785629326385,-0.0012785629151211,0.0012785629653017,-0.0012785629391229,0.001278562939672,-0.0012785629182375,0.0012785629620524,-5.0181360229185e-12,-2.4274769304814e-12,-0.00082862537066652,0.00082862536239492,1.148911425074e-11,-2.0095303453376e-11,-0.00092581419226382,0.00092581419412425,-0.00092581420259869,0.00092581418368776,-0.00092581419208004,0.00092581419566246,-0.00092581420247636,0.00092581418529596,-0.00081629104148427,0.00081629102565849,-0.00081629104393685,0.00081629102303393,0.66479676253864,122718,2924,0.0034476629598706,0.0059391355935755,0.0034476629598781,28.445480069927,0.00014276384055942,0.00014276384055942,0.00014276384055942,2508964.3218384,0.012917491112523
32419200,0.9999507465466,0.013687188932027,0.0041903265729744,0.0053065357860663,0.0041903265729862,-0.00082497502315692,0.00082497501835803,-8.4813928110362e-13,-3.4389255128955e-12,8.3638160205735e-12,-1.3410032597415e-11,-0.0009284279474812,0.00092842795082949,-0.00092842794882423,0.00092842795044215,-0.00092842795446364,0.00092842794354515,-0.00092842795593423,0.00092842794329371,-0.000813155599545,0.00081315559030799,-0.00081315560228073,0.00081315558797293,-5.2797849414884e-12,1.670637454349e-11,-1.0616053392738e-11,2.1713005035542e-11,-0.0014362054833724,0.0014362054944952,-0.0015674229475768,0.0015674229407305,-0.0015674229377668,0.0015674229521591,-0.0015674229411207,0.0015674229486845,-0.0015674229313042,0.0015674229601191,-0.0012869457187494,0.0012869457054491,-0.0012869456879082,0.0012869457379865,-0.0012869457118944,0.0012869457124949,-0.0012869456910305,0.0012869457347295,-4.6256493219413e-12,-2.0350941233891e-12,-0.00082497502430963,0.0008249750172089,1.1849276336271e-11,-1.9658100677268e-11,-0.00092842794772802,0.00092842795045925,-0.00092842795803474,0.00092842794004953,-0.00092842794741144,0.00092842795186461,-0.00092842795778061,0.00092842794152587,-0.00081315560254675,0.00081315558763618,-0.00081315560500365,0.00081315558501615,0.7835582016357,122718,2924,0.0034325617660484,0.0059656211057157,0.0034325617660559,29.298069701955,0.00014958455761564,0.00014958455761564,0.00014958455761564,2401234.6490811,0.01291375531918
33419200,0.99996581009148,0.013687447782417,0.004190404129026,0.0053066395243528,0.0041904041290378,-0.00081937226719681,0.0008193722631174,-6.0984703135651e-13,-3.2004735241175e-12,8.5502182213348e-12,-1.3107193790109e-11,-0.00092649028504859,0.00092649028889817,-0.00092649028631167,0.00092649028843099,-0.00092649029199344,0.00092649028165395,-0.00092649029338379,0.00092649028132237,-0.00080788184355093,0.0008078818348986,-0.00080788184628488,0.00080788183256206,-5.2355113234288e-12,1.6638780726082e-11,-1.0566828543583e-11,2.1642850119903e-11,-0.0014400669990286,0.0014400670101301,-0.0015705885802506,0.0015705885734645,-0.0015705885703847,0.0015705885847538,-0.0015705885737363,0.0015705885812819,-0.0015705885638638,0.0015705885925772,-0.0012906623795099,0.0012906623662667,-0.0012906623487427,0.0012906623986463,-0.0012906623726602,0.0012906623733073,-0.0012906623518638,0.0012906623953904,-4.3903196581598e-12,-1.7999242782547e-12,-0.00081937226835249,0.00081937226196527,1.2029485713351e-11,-1.9355142605223e-11,-0.00092649028530038,0.00092649028852446,-0.00092649029556516,0.0009264902781561,-0.00092649028490359,0.00092649028984952,-0.00092649029523123,0.00092649027955257,-0.00080788184655271,0.000807881832223,-0.00080788184901057,0.00080788182960422,0.80945760226261,122718,2924,0.0034093419095179,0.005981554068812,0.0034093419095253,29.317375146495,0.00014973900117196,0.00014973900117196,0.00014973900117196,2326191.4720951,0.012882869373454
34419200,0.99997721259626,0.013687625513546,0.004190457382138,0.005306710749258,0.0041904573821498,-0.00082098832109867,0.00082098831526142,-1.1988668607345e-12,-3.7895175997388e-12,8.0166553944747e-12,-1.3775175001389e-11,-0.00092835501218634,0.0009283550147179,-0.00092835501364898,0.00092835501445025,-0.00092835501917831,0.00092835500742822,-0.00092835502076602,0.00092835500729387,-0.0008094045361926,0.00080940452615888,-0.00080940453892113,0.00080940452381689,-5.2768071795158e-12,1.6718427322345e-11,-1.0607471713726e-11,2.1720471807437e-11,-0.001445463432871,0.0014454634440096,-0.0015769393591297,0.0015769393522878,-0.0015769393494523,0.0015769393638573,-0.0015769393528035,0.0015769393603864,-0.0015769393431197,0.001576939371962,-0.0012949576488414,0.0012949576355641,-0.0012949576180439,0.0012949576681404,-0.0012949576419931,0.0012949576426031,-0.0012949576211639,0.0012949576648867,-4.9780213954517e-12,-2.3875967664401e-12,-0.00082098832225283,0.00082098831411076,1.1495853338983e-11,-2.00197567576e-11,-0.00092835501243677,0.00092835501434511,-0.00092835502274829,0.00092835500393223,-0.00092835501223942,0.0009283550158696,-0.00092835502261164,0.00092835500552594,-0.00080940453918703,0.00080940452347926,-0.00080940454165081,0.00080940452086649,0.73398852679868,122718,2924,0.0034160644049226,0.006003901277409,0.0034160644049299,31.489045061008,0.00016711236048806,0.00016711236048806,0.00016711236048806,2295504.6872138,0.012919121975206
35419200,0.99998615619824,0.013687748865167,0.0041904943109036,0.0053067602433476,0.0041904943109154,-0.00083119524818553,0.00083119524039339,-1.8555124697795e-12,-4.44638034088e-12,7.5130206643612e-12,-1.46124477174e-11,-0.00093588187458529,0.00093588187568764,-0.00093588187627339,0.0009358818756452,-0.00093588188168797,0.00093588186828525,-0.00093588188349952,0.00093588186837452,-0.00081927686045268,0.00081927684882127,-0.00081927686316969,0.00081927684646754,-5.3867393505752e-12,1.6926829161694e-11,-1.0742020368063e-11,2.1948671541974e-11,-0.0014523839175791,0.0014523839288118,-0.0015854839745883,0.0015854839676008,-0.0015854839650516,0.0015854839795644,-0.0015854839684176,0.0015854839760781,-0.0015854839588744,0.0015854839880479,-0.001300732605336,0.0013007325919069,-0.0013007325742739,0.0013007326249254,-0.0013007325984576,0.0013007325989757,-0.0013007325774058,0.0013007326216598,-5.6328972276798e-12,-3.0422601051597e-12,-0.00083119524933776,0.00083119523924466,1.1014480044607e-11,-2.0875860149265e-11,-0.00093588187482525,0.00093588187532326,-0.00093588188526488,0.00093588186478467,-0.00093588187485332,0.00093588187707343,-0.00093588188535144,0.00093588186660191,-0.00081927686344106,0.00081927684612542,-0.00081927686591716,0.00081927684352476,0.64952121200817,122718,2924,0.0034584242534359,0.0060326087989293,0.0034584242534432,35.943761939583,0.00020275009551666,0.00020275009551666,0.00020275009551666,2312814.4386454,0.013034007598018
36419200,0.99999187836285,0.013687831675085,0.004190519169919,0.0053067933352347,0.0041905191699308,-0.00083663966826154,0.00083663966287413,-1.0528603431922e-12,-3.6438626213194e-12,8.2687268795256e-12,-1.3736499594661e-11,-0.00093902588159111,0.00093902588456327,-0.00093902588299265,0.00093902588423431,-0.00093902588864939,0.00093902587720244,-0.00093902589017775,0.00093902587700863,-0.00082449324624778,0.00082449323647693,-0.00082449324898612,0.00082449323414407,-5.3586825018103e-12,1.685448581291e-11,-1.0738550474066e-11,2.1901688094933e-11,-0.0014534958791167,0.0014534958903058,-0.0015874667112027,0.0015874667042423,-0.0015874667013628,0.0015874667158483,-0.0015874667047443,0.0015874667123454,-0.0015874666948978,0.0015874667239575,-0.0013014554990081,0.0013014554855445,-0.001301455467897,0.0013014555184224,-0.0013014554920974,0.0013014554926466,-0.001301455471045,0.0013014555151398,-4.8300776944419e-12,-2.2393038555102e-12,-0.00083663966941356,0.00083663966172562,1.1795297632342e-11,-2.0025493835093e-11,-0.00093902588182251,0.00093902588420754,-0.00093902589223413,0.00093902587369388,-0.00093902588156429,0.00093902588567137,-0.00093902589203763,0.00093902587522799,-0.0008244932492653,0.00082449323379402,-0.00082449325172053,0.00082449323117189,0.6811981079479,122718,2924,0.0034810068333106,0.0060372518303518,0.003481006833318,37.485516754555,0.00021508413403644,0.00021508413403644,0.00021508413403644,2345172.8122533,0.013084456608857
37419200,0.99999525690602,0.013687878652565,0.0041905332363047,0.0053068121799433,0.0041905332363165,-0.00083567625125192,0.00083567624701605,-6.6199103398126e-13,-3.2529496341574e-12,8.5562758873802e-12,-1.3225940927172e-11,-0.0009397557170395,0.00093975572084453,-0.00093975571831168,0.00093975572038623,-0.0009397557240243,0.00093975571355905,-0.00093975572542404,0.00093975571323667,-0.00082364517352007,0.00082364516470435,-0.00082364517626274,0.00082364516237591,-5.2882918874893e-12,1.6709990256562e-11,-1.0668444086356e-11,2.1760768047003e-11,-0.0014551511991404,0.0014551512102584,-0.0015882325992686,0.0015882325923861,-0.0015882325893491,0.0015882326037654,-0.0015882325927313,0.0015882326002614,-0.0015882325828053,0.0015882326116466,-0.0013037682727438,0.0013037682593422,-0.0013037682417859,0.0013037682919626,-0.0013037682658315,0.0013037682664464,-0.0013037682449367,0.0013037682886766,-4.441149237704e-12,-1.8504225885072e-12,-0.00083567625240596,0.00083567624586554,1.2083496769233e-11,-1.9520077543596e-11,-0.00093975571727317,0.00093975572048808,-0.00093975572761054,0.00093975571004731,-0.00093975571688543,0.00093975572182239,-0.00093975572728572,0.00093975571145308,-0.00082364517654461,0.00082364516202307,-0.00082364517899475,0.00082364515939595,0.65495763090949,122718,2924,0.0034770212462546,0.0060440791312605,0.0034770212462619,37.681073039505,0.00021664858431604,0.00021664858431604,0.00021664858431604,2315600.2553521,0.013083306433754
38419200,0.99999719868214,0.013687908734555,0.0041905422852941,0.0053068241639555,0.0041905422853059,-0.00083478227279031,0.00083478226914423,-4.606377513623e-13,-3.0515845455457e-12,8.6516336599275e-12,-1.290891470034e-11,-0.0009384964372201,0.00093849644142866,-0.00093849643842511,0.00093849644090324,-0.00093849644413289,0.0009384964342175,-0.00093849644546577,0.00093849643382828,-0.00082275319471395,0.00082275318642417,-0.00082275319746182,0.00082275318410094,-5.2193288177932e-12,1.6562550113698e-11,-1.0580038316504e-11,2.1596940404766e-11,-0.0014540401719644,0.0014540401830067,-0.001587399575903,0.0015873995691034,-0.0015873995659888,0.0015873995803181,-0.0015873995693592,0.0015873995768264,-0.0015873995594385,0.0015873995880471,-0.001302396828071,0.0013023968147684,-0.001302396797335,0.0013023968471171,-0.0013023968211824,0.0013023968218482,-0.0013023968004762,0.0013023968438411,-4.2370021654334e-12,-1.6462859570941e-12,-0.00083478227394158,0.00083478226799651,1.2165330328097e-11,-1.9183242484412e-11,-0.00093849643745795,0.00093849644106966,-0.00093849644770972,0.00093849643071377,-0.00093849643700282,0.00093849644233659,-0.00093849644731818,0.00093849643205282,-0.00082275319773509,0.00082275318375651,-0.00082275320017955,0.00082275318112374,0.72891346290552,122718,2924,0.0034733073383588,0.0060394835738678,0.0034733073383662,37.194402189676,0.00021275521751741,0.00021275521751741,0.00021275521751741,2322064.2523686,0.013071123702533
38880000,0.99999787681884,0.013687919476526,0.0041905455156978,0.0053068284451187,0.0041905455157096,-0.00083209582176075,0.00083209581774568,-5.8373141924407e-13,-3.1745910528032e-12,8.492080955109e-12,-1.2995354412608e-11,-0.00093825336641515,0.00093825337028596,-0.00093825336766953,0.00093825336980992,-0.00093825337330613,0.00093825336309922,-0.00093825337468707,0.00093825336275809,-0.00082025171825088,0.00082025170970844,-0.00082025172099106,0.0008202517073777,-5.1871198899891e-12,1.651725726207e-11,-1.0520930769257e-11,2.1526306562581e-11,-0.0014561461003081,0.0014561461113387,-0.0015885673021289,0.0015885672953816,-0.0015885672923072,0.001588567306608,-0.0015885672956609,0.0015885673031339,-0.0015885672858327,0.0015885673143663,-0.0013050040430128,0.0013050040298019,-0.0013050040124096,0.0013050040620272,-0.0013050040361585,0.0013050040368468,-0.0013050040155348,0.0013050040587674,-4.3598076343989e-12,-1.7691778793008e-12,-0.00083209582291174,0.00083209581659822,1.1980775466122e-11,-1.9243453310453e-11,-0.00093825336666202,0.00093825336991894,-0.00093825337687348,0.00093825335960397,-0.000938253366256,0.00093825337123491,-0.00093825337653025,0.00093825336099126,-0.00082025172125542,0.00082025170704194,-0.00082025172370707,0.00082025170441653,0.74537476942469,122718,2924,0.0034621775923247,0.006048164689351,0.0034621775923321,37.193613676963,0.0002127489094157,0.0002127489094157,0.0002127489094157,2277847.4872965,0.013057379205521
