time,ASR_ext,ASR_strain,ASR_strain_xx,ASR_strain_yy,ASR_strain_zz,disp_x_101,disp_x_102,disp_x_103,disp_x_104,disp_x_105,disp_x_106,disp_x_p1_neg,disp_x_p1_pos,disp_x_p2_neg,disp_x_p2_pos,disp_x_p3_neg,disp_x_p3_pos,disp_x_p4_neg,disp_x_p4_pos,disp_x_p5_neg,disp_x_p5_pos,disp_x_p6_neg,disp_x_p6_pos,disp_y_101,disp_y_102,disp_y_103,disp_y_104,disp_y_105,disp_y_106,disp_y_p1_neg,disp_y_p1_pos,disp_y_p2_neg,disp_y_p2_pos,disp_y_p3_neg,disp_y_p3_pos,disp_y_p4_neg,disp_y_p4_pos,disp_y_p5_neg,disp_y_p5_pos,disp_y_p6_neg,disp_y_p6_pos,disp_y_p7_neg,disp_y_p7_pos,disp_y_p8_neg,disp_y_p8_pos,disp_z_101,disp_z_102,disp_z_103,disp_z_104,disp_z_105,disp_z_106,disp_z_p1_neg,disp_z_p1_pos,disp_z_p2_neg,disp_z_p2_pos,disp_z_p3_neg,disp_z_p3_pos,disp_z_p4_neg,disp_z_p4_pos,disp_z_p5_neg,disp_z_p5_pos,disp_z_p6_neg,disp_z_p6_pos,humidity,ndof,nelem,strain_xx,strain_yy,strain_zz,temp,thermal_strain_xx,thermal_strain_yy,thermal_strain_zz,vonmises,vstrain
2419200,0,0,0,0,0,0,0,0,0,0,0,0,0,0,0,0,0,0,0,0,0,0,0,0,0,0,0,0,0,0,0,0,0,0,0,0,0,0,0,0,0,0,0,0,0,0,0,0,0,0,0,0,0,0,0,0,0,0,0,0,0,0,0,0,0,0,0,0,0,0,0,0,0,0,0
3419200,0.15861567949389,0.0030029625129218,0.0010009875043073,0.0010009875043073,0.0010009875043073,-0.00027089500040305,0.00027088848538322,-2.4585727073383e-09,-2.4585726415458e-09,-2.0666205157951e-09,-2.7998811702581e-09,-0.00027558515012368,0.00027558001956715,-0.00027558566963584,0.00027558053906853,-0.00027558540032309,0.00027557977081058,-0.00027558590992589,0.00027558028041811,-0.00027115827360756,0.0002711528808405,-0.00027115870451554,0.00027115331176216,-2.1832949977188e-10,4.5858635721113e-10,-2.4972434423976e-10,4.8026283010903e-10,-0.00028686529734674,0.00028686552877406,-0.0002896711471196,0.00028967085547248,-0.00028967138510125,0.00028967163238324,-0.00028967140310443,0.00028967161378363,-0.00028967164109556,0.00028967239070054,-0.00028306719808658,0.00028306695856173,-0.00028306693773383,0.00028306810813792,-0.00028306716190263,0.00028306699534741,-0.00028306694952176,0.00028306809596814,-2.463846686697e-09,-2.4638467414233e-09,-0.00027089500569764,0.00027088848008641,-2.0495087093422e-09,-2.8282824922778e-09,-0.00027558514368352,0.00027558002086883,-0.00027558541711609,0.00027557975909419,-0.000275585663842,0.00027558054102372,-0.00027558592611709,0.00027558026809543,-0.00027115871834295,0.00027115329886722,-0.00027115828883332,0.00027115286936351,0.75746877217741,122718,2924,0.001128077981865,0.001194555409647,0.0011280779818604,31.795704912604,0.00016956563930083,0.00016956563930083,0.00016956563930083,1234037.2885776,0.0034566737435783
4419200,0.35001072318896,0.0064709596785341,0.0020995309808296,0.0022718977168853,0.0020995309808191,-0.00052354780200482,0.00052353203364371,-6.416410070176e-09,-6.4164074533124e-09,-5.2262377684482e-09,-7.5926656773342e-09,-0.00053998943671523,0.00053997609236972,-0.00053999106574665,0.00053997772137175,-0.00053999026737332,0.00053997528560872,-0.00053999185080166,0.00053997686904028,-0.00052530154065347,0.00052528750729342,-0.00052530289202148,0.00052528885866719,-5.6227428802411e-10,1.5469161554792e-09,-6.1110961337374e-10,1.5638182849248e-09,-0.00060425966135676,0.00060426061751312,-0.00061991400340798,0.00061991336251555,-0.00061991526113741,0.0006199162323229,-0.00061991528566898,0.00061991620747703,-0.00061991654344754,0.00061991907734086,-0.00058502471728406,0.00058502429567918,-0.0005850245663547,0.00058502836577047,-0.00058502466380465,0.00058502434999162,-0.00058502457214236,0.00058502835944978,-6.4259808980916e-09,-6.4259783644925e-09,-0.0005235478115306,0.00052353202411309,-5.2174370077632e-09,-7.6219858714367e-09,-0.00053998943135811,0.00053997608614427,-0.00053999029119909,0.00053997527330964,-0.00053999106182164,0.00053997771658789,-0.00053999187324381,0.00053997685534235,-0.00052530290990059,0.00052528884346978,-0.00052530156249701,0.00052528749608947,0.73992840791513,122718,2924,0.0021790559386303,0.0025145620765092,0.0021790559386202,33.599610848603,0.00018399688678882,0.00018399688678882,0.00018399688678882,2443091.6382559,0.0068963617802716
5419200,0.55030665903171,0.0099658085087931,0.0031484171480506,0.0036689742126966,0.0031484171480459,-0.00075972518796497,0.00075971554359281,-3.9349625870352e-09,-3.9349584510981e-09,-3.4484495864455e-09,-3.7797951527644e-09,-0.00079272407818888,0.00079271504030632,-0.00079272527931935,0.00079271624140395,-0.00079272425001285,0.00079271491947192,-0.00079272541358678,0.00079271608304633,-0.00076170110304792,0.00076169267511002,-0.00076170173085133,0.00076169330290021,1.7271565546411e-10,2.8316192896509e-10,2.3122484109277e-10,2.1929038368225e-10,-0.00095782396471547,0.00095782441598627,-0.00099798026781528,0.00099798070146042,-0.00099798143967108,0.00099798184555612,-0.00099798140187847,0.00099798188553706,-0.00099798257379773,0.00099798302967306,-0.00090991949791328,0.00090991997395281,-0.00090991929369485,0.00090991981044861,-0.00090991956409628,0.00090991990573351,-0.00090991925498013,0.00090991985045846,-3.9221641554156e-09,-3.9221603715165e-09,-0.00075972517492034,0.00075971555663446,-3.5004457032866e-09,-3.7003936559445e-09,-0.00079272409774821,0.00079271503155915,-0.00079272420469047,0.00079271495428763,-0.00079272529748048,0.00079271623126517,-0.00079272536935153,0.00079271611893838,-0.0007617016942405,0.0007616933394938,-0.00076170106496538,0.00076169271023744,0.72499638738019,122718,2924,0.003160608852159,0.0039828946717738,0.0031606088521528,36.267921608736,0.00020534337286988,0.00020534337286988,0.00020534337286988,3284230.5997734,0.010357438249831
6419200,0.70677003325839,0.01218477953251,0.003772478412851,0.0046398227068153,0.0037724784128441,-0.00088621152386112,0.00088620379170474,-3.0745858291494e-09,-3.0745837259468e-09,-3.1688977253552e-09,-3.2679578511897e-09,-0.00093928074589011,0.00093927349782361,-0.00093928158960837,0.00093927434150493,-0.00093928081120347,0.00093927346344004,-0.0009392816348824,0.00093927428711484,-0.00088204138802297,0.00088203517006884,-0.00088204126158726,0.00088203504361699,-1.0508597822491e-10,-1.3195166217318e-10,-4.4266727211281e-11,-1.8963700336678e-10,-0.0012065718903974,0.0012065716545936,-0.0012801284872078,0.0012801282784221,-0.00128012966528,0.0012801293867249,-0.0012801296248086,0.0012801294278806,-0.0012801308029462,0.0012801305362321,-0.0011227960551604,0.0011227959423102,-0.0011227971150228,0.001122796755701,-0.001122796130937,0.0011227958649109,-0.0011227970802195,0.0011227967916487,-3.0653217542157e-09,-3.0653200770317e-09,-0.00088621151448329,0.00088620380107907,-3.2173932998726e-09,-3.1989621366535e-09,-0.00093928076174291,0.00093927348817835,-0.00093928077714898,0.00093927349155083,-0.00093928160465344,0.00093927433106257,-0.00093928160135899,0.00093927431574965,-0.0008820412321814,0.00088203507344021,-0.00088204135705192,0.00088203519834365,0.59839168540088,122718,2924,0.0036860077393411,0.0050145964494372,0.0036860077393339,36.738619276803,0.00020910895421442,0.00020910895421442,0.00020910895421442,3634341.0016855,0.012463775373165
7419200,0.83216388377367,0.013735042717848,0.0042011389275653,0.0053327648627239,0.0042011389275584,-0.00096884897605562,0.00096884123366521,-2.988734064156e-09,-2.988732741232e-09,-3.1466722561259e-09,-3.0903314296726e-09,-0.0010372115644509,0.0010372044938513,-0.0010372123721794,0.0010372053015372,-0.001037211579533,0.0010372045099694,-0.0010372123670303,0.0010372052974616,-0.00095884096288268,0.00095883495120644,-0.00095884080595794,0.0009588347942685,-2.5500180781099e-11,-2.0485368162535e-10,5.388937865765e-11,-2.7855545879253e-10,-0.001396046018676,0.0013960457922367,-0.001502430873657,0.001502430778596,-0.0015024320676439,0.0015024317883996,-0.0015024320157436,0.001502431841311,-0.0015024332097975,0.0015024328511663,-0.0012787900737833,0.0012787901049708,-0.0012787913434587,0.0012787907562844,-0.0012787901728378,0.0012787900040546,-0.0012787912992011,0.0012787908018549,-2.9794088843243e-09,-2.9794081940072e-09,-0.00096884896665958,0.00096884124305761,-3.2110566105424e-09,-3.0048516231158e-09,-0.0010372115860557,0.0010372044788524,-0.0010372115399505,0.0010372045432999,-0.0010372123929225,0.0010372052856867,-0.0010372123279431,0.0010372053312762,-0.00095884077089293,0.00095883482960123,-0.00095884092613221,0.00095883498487096,0.52694121020036,122718,2924,0.0040292131640985,0.005799730524497,0.0040292131640909,40.762780078034,0.00024130224062427,0.00024130224062427,0.00024130224062427,3743599.8312734,0.013954840819232
8419200,0.90783575908571,0.014571342077768,0.0044310022278525,0.0057093376220701,0.0044310022278455,-0.00099813650119533,0.00099813143925461,-1.9600782272571e-09,-1.9600762464503e-09,-2.3651776540363e-09,-1.8470708670176e-09,-0.0010778675759057,0.0010778626837359,-0.0010778681736702,0.0010778632814513,-0.0010778674357184,0.0010778628556778,-0.0010778680171148,0.0010778634370659,-0.00098530955823989,0.00098530588291109,-0.0009853093028345,0.00098530562749562,9.8397685753537e-11,-5.1580281516629e-10,2.1702197295123e-10,-6.2259901814501e-10,-0.0015022475096498,0.0015022471017962,-0.0016284037517653,0.0016284038081089,-0.0016284049303597,0.0016284044472567,-0.0016284048546456,0.0016284045249843,-0.0016284060333035,0.0016284051641879,-0.0013640879834021,0.0013640881799968,-0.0013640896904351,0.0013640882799685,-0.001364088130963,0.0013640880293981,-0.0013640896264432,0.0013640883460601,-1.9460156748511e-09,-1.9460148851399e-09,-0.00099813648705754,0.00099813145338975,-2.4575778538012e-09,-1.7227152417034e-09,-0.0010778676062022,0.0010778626627388,-0.0010778673785407,0.0010778629041331,-0.0010778682026115,0.0010778632591183,-0.0010778679606982,0.0010778634862784,-0.00098530925138881,0.00098530567876893,-0.00098530950427783,0.0009853059316862,0.47156008474719,122718,2924,0.0041509421413047,0.0062394866390803,0.0041509421412992,41.433442199543,0.00024666753759634,0.00024666753759634,0.00024666753759634,3610996.6643053,0.014647888491943
8919200,0.93552710995553,0.014845950733799,0.0045065505191236,0.0058328496955585,0.0045065505191168,-0.0010044650905216,0.0010044602821196,-1.8470983596612e-09,-1.8470963582714e-09,-2.4059459086069e-09,-1.5805337723664e-09,-0.0010891109794821,0.0010891062283837,-0.0010891115433761,0.0010891067922348,-0.0010891107397669,0.0010891065031455,-0.0010891112874264,0.0010891070508014,-0.00099001084065684,0.00099000748736632,-0.00099001057443849,0.00099000722113865,1.8653631206136e-10,-7.3198026732881e-10,3.5459279366885e-10,-8.8383484309929e-10,-0.0015410207963517,0.0015410202644195,-0.0016757527924253,0.0016757529586123,-0.0016757540587391,0.0016757534213636,-0.0016757539523209,0.0016757535312478,-0.0016757552187019,0.0016757539940491,-0.0013935567121985,0.001393557075211,-0.0013935588006559,0.0013935567737774,-0.0013935569221351,0.0013935568605584,-0.0013935587090414,0.0013935568686531,-1.8264338070244e-09,-1.8264330147839e-09,-0.0010044650697538,0.0010044603028848,-2.5360624399745e-09,-1.4034037326043e-09,-0.0010891110201607,0.0010891061992063,-0.0010891106596816,0.0010891065726051,-0.001089111582219,0.0010891067612325,-0.0010891112082943,0.0010891071212005,-0.00099001050097644,0.00099000729420177,-0.00099001076405773,0.00099000755731237,0.42237158177334,122718,2924,0.0041772954833544,0.0063999852200444,0.004177295483349,41.891038346846,0.00025032830677476,0.00025032830677476,0.00025032830677476,3575379.2286008,0.014864269696133
9919200,0.96382411165317,0.015116411322011,0.0045815470042627,0.0059533173134928,0.004581547004256,-0.0010004130568108,0.001000411431956,-5.9799124625033e-10,-5.9798921176762e-10,-1.4622828948054e-09,-3.1194257272147e-11,-0.0010900832217031,0.0010900810881513,-0.0010900835435416,0.0010900814099449,-0.001090082778802,0.0010900815678476,-0.0010900830888917,0.0010900818779284,-0.00098508046583106,0.00098507993372157,-0.00098508013896043,0.00098507960684182,3.4959205411448e-10,-1.1401929506233e-09,5.8653455712484e-10,-1.3529301957347e-09,-0.0015756248184579,0.001575624048745,-0.0017190587256481,0.0017190591049112,-0.0017190599661853,0.0017190590499898,-0.0017190598174212,0.0017190592041845,-0.0017190610580231,0.0017190591493115,-0.0014185643732319,0.0014185649874994,-0.0014185670226661,0.0014185638814626,-0.0014185646691481,0.0014185646845795,-0.0014185668940809,0.0014185640149023,-5.6859041702659e-10,-5.6858964581485e-10,-0.0010004130272901,0.001000411461474,-1.6435219396506e-09,2.1711344285082e-10,-0.0010900832773924,0.0010900810478281,-0.0010900826672752,0.001090081665298,-0.0010900835966291,0.0010900813670338,-0.0010900829786642,0.0010900819766696,-0.00098508003576391,0.00098507970913283,-0.00098508035837916,0.00098508003177505,0.40580960983116,122718,2924,0.0041606029663632,0.006543185002109,0.0041606029663578,39.825993638552,0.00023380794910842,0.00023380794910842,0.00023380794910842,3461925.8413892,0.014975746015196
10919200,0.97887486778992,0.015252907677271,0.0046197216299551,0.0060134644173679,0.0046197216299484,-0.00099404690487676,0.0009940455553012,-4.8082497232752e-10,-4.8082291440302e-10,-1.584273769965e-09,3.3925680393752e-10,-0.0010884251982498,0.0010884231431956,-0.0010884255068389,0.0010884234517407,-0.0010884245978312,0.0010884237873237,-0.0010884248934466,0.0010884240829297,-0.00097843744947822,0.00097843732273531,-0.00097843712654,0.00097843699978812,5.0727003860147e-10,-1.4738385496558e-09,8.4184197430555e-10,-1.7772976904226e-09,-0.0015939663145844,0.0015939653751216,-0.0017410018727067,0.0017410024669535,-0.0017410033020024,0.0017410021553858,-0.001741003092225,0.0017410023734576,-0.0017410045215848,0.0017410020619377,-0.0014323242067728,0.0014323251564454,-0.0014323275004118,0.001432323359873,-0.0014323246262054,0.0014323247266791,-0.0014323273158276,0.0014323235516242,-4.401830570627e-10,-4.4018224633747e-10,-0.00099404686405096,0.00099404559612465,-1.8434312727341e-09,6.9159049657256e-10,-0.0010884252763803,0.0010884230842043,-0.0010884244426655,0.0010884239252268,-0.0010884255815063,0.0010884233892987,-0.0010884247398567,0.0010884242224009,-0.0009784369812103,0.00097843714386466,-0.00097843729895043,0.00097843746163126,0.38386915973583,122718,2924,0.0041342720507281,0.0066190423043911,0.0041342720507232,37.954679113165,0.00021883743290532,0.00021883743290532,0.00021883743290532,3359414.7435306,0.014999311891423
11919200,0.98745163749515,0.015340218678705,0.004644487901463,0.0060512428757861,0.0046444879014563,-0.00099065793372296,0.00099065583777423,-7.6837417757499e-10,-7.683721154375e-10,-1.974124827974e-09,1.6135983309727e-10,-0.0010877698776165,0.0010877671014113,-0.0010877702430933,0.0010877674668439,-0.0010877692120802,0.0010877678155216,-0.0010877695623282,0.0010877681657604,-0.00097512027160263,0.00097511961318458,-0.00097511996144214,0.0009751193030153,5.791037374548e-10,-1.6218677938463e-09,1.0095705402542e-09,-2.0179358596211e-09,-0.0016059955012434,0.001605994488511,-0.0017549772465012,0.0017549779643298,-0.0017549788576494,0.0017549775765788,-0.0017549785873547,0.0017549778581903,-0.0017549801985668,0.0017549774704872,-0.00144169451931,0.0014416957277758,-0.0014416982366276,0.0014416935489023,-0.0014416950615947,0.0014416951716395,-0.001441697993935,0.0014416938012183,-7.1635609212194e-10,-7.1635526967647e-10,-0.00099065788144395,0.00099065589005107,-2.3123231898785e-09,6.1926778965348e-10,-0.0010877699769913,0.0010877670231674,-0.0010877690142299,0.0010877679947284,-0.0010877703383344,0.0010877673844788,-0.0010877693661131,0.0010877683465947,-0.00097511977372267,0.00097511948935682,-0.00097512007825259,0.00097511979391308,0.42919646853676,122718,2924,0.0041202619978441,0.0066687904273872,0.0041202619978396,37.104475739643,0.00021203580591714,0.00021203580591714,0.00021203580591714,3296364.7810567,0.015021376901617
12919200,0.99239259452552,0.015388052802322,0.0046580565017191,0.0060719397988904,0.0046580565017124,-0.00098369369707327,0.00098369185587548,-6.7321905673574e-10,-6.7321695013661e-10,-1.9461183920513e-09,3.3221942074827e-10,-0.0010854100736372,0.0010854074388119,-0.0010854104239709,0.0010854077891015,-0.0010854093623483,0.0010854082004514,-0.0010854096970978,0.0010854085351922,-0.00096838257907355,0.00096838217323761,-0.00096838226171263,0.00096838185586818,6.4427024013347e-10,-1.6985764202445e-09,1.1548176944651e-09,-2.1727976848163e-09,-0.0016149442220648,0.0016149431994873,-0.001764269442158,0.0017642702962141,-0.0017642711254179,0.0017642697828896,-0.0017642708043034,0.0017642701176258,-0.0017642724876271,0.0017642696043492,-0.0014492905814269,0.0014492920275545,-0.0014492945627931,0.0014492895236227,-0.0014492912264279,0.0014492913659788,-0.0014492942707787,0.0014492898271604,-6.1492074131404e-10,-6.1491989470755e-10,-0.00098369363841568,0.00098369191453114,-2.3544948476809e-09,8.7579486851831e-10,-0.0010854101938501,0.0010854073409111,-0.0010854091319123,0.0010854084115194,-0.0010854105395993,0.0010854076866288,-0.0010854094682916,0.001085408747882,-0.0009683820415437,0.00096838207454805,-0.00096838235313255,0.00096838238616312,0.40792516971781,122718,2924,0.0040914290444009,0.0067057538639759,0.0040914290443969,36.135499526376,0.00020428399621101,0.00020428399621101,0.00020428399621101,3199669.4346478,0.015000384625917
13919200,0.9951570741966,0.015414021531111,0.0046654558748387,0.0060831097814406,0.004665455874832,-0.00097702244438976,0.00097702198654452,-1.3803985076959e-10,-1.3803776000976e-10,-1.5498220324787e-09,1.011548888817e-09,-0.0010794423076583,0.0010794407872727,-0.0010794425552141,0.0010794410347846,-0.0010794415025326,0.0010794416446637,-0.0010794417358936,0.0010794418780156,-0.00096168831558677,0.00096168913245757,-0.00096168798007584,0.00096168879693814,7.2604663574425e-10,-1.8854981313558e-09,1.322201558297e-09,-2.4412383942546e-09,-0.0016150635534272,0.0016150624294696,-0.0017658161496941,0.0017658171476691,-0.0017658178613782,0.0017658163636259,-0.0017658174867124,0.0017658167547829,-0.0017658191984603,0.0017658159707874,-0.0014477033075679,0.0014477049870106,-0.001447707652234,0.0014477019952547,-0.0014477040616279,0.0014477042131101,-0.0014477073092282,0.0014477023520503,-6.9061104921827e-11,-6.9060286946815e-11,-0.0009770223749845,0.00097702205594784,-2.0269478580166e-09,1.6487555516331e-09,-0.0010794424463572,0.0010794406732146,-0.0010794412334956,0.0010794418925447,-0.0010794426886592,0.0010794409154851,-0.0010794414686148,0.0010794421276472,-0.00096168772184388,0.00096168905339421,-0.00096168805101909,0.00096168938259547,0.39515163184557,122718,2924,0.004063771008883,0.0067062380731842,0.004063771008879,33.831875487408,0.00018585500389926,0.00018585500389926,0.00018585500389926,3180083.4412499,0.014944732925383
14919200,0.99671278167992,0.015428889547396,0.0046697066279448,0.006089476291513,0.0046697066279382,-0.00096881055402286,0.0009688110955924,2.5154057165967e-10,2.5154265753523e-10,-1.3305844317795e-09,1.5795992752676e-09,-0.0010719951707294,0.0010719944081081,-0.0010719953472757,0.0010719945846104,-0.0010719942518671,0.0010719953828128,-0.0010719944147034,0.0010719955456401,-0.00095347539283612,0.00095347714354874,-0.00095347504820362,0.00095347679890804,8.3570426839649e-10,-2.1148633462e-09,1.5307648565962e-09,-2.7646236065877e-09,-0.0016119415406582,0.0016119403014357,-0.0017634560695627,0.0017634572477094,-0.0017634578725933,0.0017634561972633,-0.0017634574359053,0.001763456653567,-0.0017634592389995,0.0017634556031685,-0.0014436020031368,0.0014436039746549,-0.0014436068213682,0.0014436004150574,-0.0014436028831063,0.0014436030712728,-0.0014436064196451,0.001443600833055,3.3209219731133e-10,3.3209301521281e-10,-0.00096881047296104,0.00096881117665221,-1.8880607149824e-09,2.3241418050044e-09,-0.0010719953316818,0.0010719942746502,-0.0010719939387346,0.0010719956725319,-0.0010719955022057,0.0010719944451426,-0.0010719941035013,0.0010719958372819,-0.00095347474671115,0.00095347709830788,-0.0009534750843465,0.00095347743596927,0.40169418920772,122718,2924,0.0040297132745171,0.0066933043390158,0.0040297132745129,30.577047404861,0.00015981637923889,0.00015981637923889,0.00015981637923889,3166446.7742182,0.014862479055618
15919200,0.99755986739902,0.0154412466302,0.0046732935884186,0.0060946594533693,0.004673293588412,-0.00095619210796504,0.00095619456254919,9.9306759285274e-10,9.9306968129342e-10,-8.0572107275408e-10,2.5505968000774e-09,-0.00106080415731,0.0010608048939639,-0.0010608041985944,0.0010608049352042,-0.0010608030913307,0.0010608060190337,-0.0010608031205988,0.0010608060482927,-0.00094101450605336,0.00094101796714612,-0.00094101413475407,0.00094101759583852,9.8108386679661e-10,-2.3976442732309e-09,1.7761331726449e-09,-3.1413629629296e-09,-0.0016053007469492,0.0016052993758023,-0.0017570484734262,0.0017570498827517,-0.0017570503265801,0.0017570484567729,-0.0017570498273175,0.0017570489786122,-0.0017570516805348,0.0017570475526808,-0.0014363577816205,0.0014363600845346,-0.00143636311167,0.0014363558216367,-0.001436358788318,0.0014363590510259,-0.0014363626514977,0.0014363563004379,1.083876344807e-09,1.083877172767e-09,-0.00095619201655047,0.0009561946539618,-1.4451223785033e-09,3.4012588527343e-09,-0.0010608043422984,0.0010608047398176,-0.0010608027348043,0.0010608063493586,-0.0010608043767632,0.0010608047742513,-0.0010608027662404,0.0010608063807778,-0.00094101379112591,0.000941017936956,-0.00094101415465046,0.00094101830050637,0.61124574124318,122718,2924,0.003977374774827,0.0066657934870766,0.003977374774823,25.364920796634,0.00011811936637308,0.00011811936637308,0.00011811936637308,3149727.0217961,0.014728342127781
16919200,0.99814491897877,0.0154512231843,0.0046761846101494,0.0060988539640077,0.0046761846101428,-0.00094128914059715,0.00094128830426104,-2.9501550023633e-10,-2.9501335689791e-10,-2.0299274253256e-09,1.2143081106031e-09,-0.0010548479040882,0.0010548457482116,-0.0010548481942443,0.0010548460383241,-0.0010548468831023,0.0010548468321151,-0.0010548471556774,0.0010548471046811,-0.00092688184110624,0.00092688255633308,-0.00092688153108884,0.00092688224630784,1.0235926828579e-09,-2.2783798740294e-09,1.8890700099726e-09,-3.0941494859748e-09,-0.0016128962929068,0.0016128950818078,-0.0017624364351089,0.0017624379645124,-0.0017624385586016,0.0017624368011831,-0.0017624380131798,0.0017624373702241,-0.0017624401367361,0.0017624362069419,-0.0014443253218376,0.0014443278868408,-0.0014443308373862,0.0014443236673705,-0.0014443264202098,0.001444326760227,-0.0014443303309781,0.0014443241934027,-2.0983643215574e-10,-2.0983551102212e-10,-0.00094128905462086,0.00094128839023534,-2.7464065562532e-09,2.1323914417416e-09,-0.0010548481182153,0.0010548455640982,-0.0010548465083811,0.0010548471816399,-0.0010548484015823,0.001054845847434,-0.0010548467829166,0.0010548474561589,-0.00092688116894902,0.00092688260609158,-0.00092688147179535,0.00092688290896392,0.71449933208594,122718,2924,0.0039156287205983,0.0066970707376474,0.0039156287205942,23.782159317017,0.00010545727453614,0.00010545727453614,0.00010545727453614,2971969.8457127,0.014634817384192
17919200,0.99850611367609,0.015455570878484,0.0046774305239957,0.0061007098304991,0.0046774305239891,-0.00092369518652773,0.00092369702811517,7.1785334793327e-10,7.1785547561839e-10,-1.1087649854062e-09,2.3395761119087e-09,-0.0010407266436831,0.0010407266712591,-0.001040726737874,0.001040726765406,-0.0010407255518783,0.0010407278250041,-0.0010407256316324,0.0010407279047496,-0.00090947187688556,0.00090947482624198,-0.00090947152170061,0.00090947447104951,1.0912803830157e-09,-2.3904391749594e-09,2.0388496984824e-09,-3.2852935651838e-09,-0.0016105191290457,0.0016105178764203,-0.0017612652833578,0.0017612669672549,-0.0017612672925227,0.0017612654416465,-0.0017612666957645,0.00176126606487,-0.0017612687049925,0.0017612645393089,-0.001439801709065,0.0014398044995835,-0.0014398073985458,0.001439799793205,-0.0014398029122067,0.0014398032650317,-0.0014398068423192,0.0014398003712117,8.0896671997494e-10,8.0896761459467e-10,-0.00092369509451834,0.00092369712012277,-1.8961646652064e-09,3.3439220585904e-09,-0.0010407268795799,0.0010407264668984,-0.0010407251445448,0.0010407282060812,-0.0010407269664833,0.0010407265537706,-0.001040725226296,0.0010407282878162,-0.00090947112717203,0.00090947486294588,-0.00090947147489425,0.00090947521069379,0.50487875784276,122718,2924,0.0038426751800108,0.0066871702993477,0.0038426751800071,19.501996353097,7.1215970824774e-05,7.1215970824774e-05,7.1215970824774e-05,2886313.8706394,0.014476754324133
18919200,0.99875996186197,0.015459322812669,0.0046785257957939,0.0061022712210882,0.0046785257957872,-0.00092376441780407,0.0009237647631944,1.6459412405845e-10,1.6459614484311e-10,-1.688050797058e-09,1.783560787854e-09,-0.0010320023473582,0.0010320012509921,-0.001032002533761,0.0010320014373512,-0.0010320012516893,0.001032002413105,-0.0010320014214714,0.0010320025828779,-0.00090873868226729,0.00090874044938397,-0.00090873837065759,0.00090874013776684,1.0148140476569e-09,-2.4967032244303e-09,2.0319733776081e-09,-3.4590332747902e-09,-0.0015996627701596,0.0015996613369703,-0.0017556651249607,0.0017556666817519,-0.0017556673024641,0.0017556652279298,-0.0017556666636247,0.0017556658980224,-0.0017556688411918,0.0017556644442477,-0.0014251543143617,0.0014251570834842,-0.0014251603041824,0.0014251523441155,-0.00142515560705,0.0014251557542414,-0.0014251597059152,0.0014251529677833,2.8242776290806e-10,2.8242853944316e-10,-0.00092376429920595,0.00092376488179067,-2.5118258392977e-09,2.8830750491365e-09,-0.0010320025804476,0.0010320010514111,-0.001032000796913,0.0010320028405751,-0.0010320027586043,0.0010320012295364,-0.001032000968728,0.0010320030123733,-0.00090873792769258,0.00090874057815887,-0.00090873823097945,0.0009087408814717,0.61739681034603,122718,2924,0.0038428805400242,0.0066423986922638,0.0038428805400204,16.882826103776,5.0262608830208e-05,5.0262608830208e-05,5.0262608830208e-05,3021109.1700642,0.014431704026726
19919200,0.99899157279284,0.015462845189561,0.0046795461871794,0.0061037528152091,0.0046795461871727,-0.00092165295371701,0.00092164905407188,-1.4716573503726e-09,-1.4716552662681e-09,-3.0960088478251e-09,-8.9989297388736e-11,-0.0010351767580574,0.0010351721021855,-0.0010351772642665,0.0010351726083508,-0.0010351758215967,0.001035173104571,-0.0010351763053152,0.0010351735882808,-0.00090684526365694,0.0009068434202326,-0.00090684500436047,0.00090684316092898,9.2296069994887e-10,-2.1672272501657e-09,1.9704325127569e-09,-3.1673874736045e-09,-0.0016087484086314,0.001608747205993,-0.0017627871579899,0.0017627886460775,-0.0017627895643736,0.0017627876958889,-0.0017627889031589,0.0017627883877147,-0.0017627913096059,0.0017627874375729,-0.0014354145330587,0.0014354173402702,-0.0014354203590128,0.0014354131140954,-0.0014354158684633,0.0014354159686395,-0.0014354197346659,0.0014354137637246,-1.3627897508556e-09,-1.3627888629857e-09,-0.00092165284394962,0.00092164916383748,-3.9666411395713e-09,1.0380061763904e-09,-0.0010351770094372,0.0010351718806512,-0.0010351753655426,0.0010351735369762,-0.0010351775078979,0.001035172379081,-0.0010351758508016,0.001035174022219,-0.0009068445583171,0.00090684360492858,-0.00090684481067633,0.00090684385731307,0.63678733162299,122718,2924,0.003834166529688,0.0066799067000997,0.0038341665296844,18.683042011224,6.4664336089788e-05,6.4664336089788e-05,6.4664336089788e-05,2907365.2481379,0.014452104054622
20919200,0.99916656680477,0.015465451334286,0.0046803033428008,0.0061048446486912,0.0046803033427942,-0.00091541419044819,0.00091541340646706,-2.7779460473095e-10,-2.7779253528383e-10,-1.8964142132703e-09,1.1065770945352e-09,-0.0010298541777809,0.0010298521897329,-0.0010298544545201,0.0010298524664284,-0.0010298532340883,0.0010298531937445,-0.0010298534931744,0.0010298534528218,-0.00090069495283655,0.0009006956395158,-0.00090069464692794,0.00090069533359954,9.0657067232943e-10,-2.1509594849583e-09,1.9728923908447e-09,-3.1705348958059e-09,-0.0016082113249196,0.0016082101218015,-0.0017629997506951,0.0017630012613686,-0.0017630019079355,0.0017630000266907,-0.0017630012349253,0.0017630007312016,-0.001763003392229,0.0017629994965709,-0.001433816091688,0.0014338189033215,-0.001433821767438,0.0014338145279347,-0.0014338174515224,0.0014338175062242,-0.001433821130339,0.0014338151910318,-1.6681523402675e-10,-1.66814359377e-10,-0.00091541407856114,0.00091541351835251,-2.7831677167838e-09,2.2560221778312e-09,-0.0010298544330455,0.0010298519639099,-0.0010298527703726,0.0010298536343846,-0.001029854701965,0.0010298522327981,-0.0010298530309021,0.0010298538948976,-0.00090069419259492,0.00090069578582102,-0.00090069449168635,0.00090069608493764,0.62276446329424,122718,2924,0.0038083000224378,0.006677666874471,0.0038083000224345,17.27263504182,5.3381080334561e-05,5.3381080334561e-05,5.3381080334561e-05,2876629.0687496,0.014397354955222
21919200,0.99928760519272,0.01546721425728,0.0046808159323156,0.0061055823926556,0.0046808159323089,-0.00090752636275498,0.0009075270206668,2.719038379527e-10,2.71905902137e-10,-1.3684556188187e-09,1.6629229274637e-09,-0.0010217960019022,0.0010217952781341,-0.0010217962767615,0.0010217955529499,-0.0010217950481656,0.0010217962922129,-0.0010217953053953,0.0010217965494335,-0.00089305744238578,0.00089305937924515,-0.00089305713841314,0.00089305907526465,8.9961155848441e-10,-2.1578157380339e-09,1.9674105111358e-09,-3.1788198387065e-09,-0.0016024181720702,0.0016024169552115,-0.0017574743186071,0.0017574758166664,-0.0017574764749144,0.0017574745791033,-0.0017574758011039,0.0017574752846281,-0.0017574779574747,0.001757474047112,-0.0014278375947119,0.0014278403953448,-0.0014278432732353,0.0014278360172963,-0.0014278389565118,0.001427838996197,-0.0014278426352464,0.0014278366813509,3.8449461335055e-10,3.8449548194166e-10,-0.00090752624929161,0.00090752713412864,-2.2547284061831e-09,2.8153571272107e-09,-0.0010217962561018,0.0010217950534267,-0.0010217945825389,0.0010217967347423,-0.0010217965231159,0.0010217953204095,-0.0010217948412083,0.0010217969933949,-0.00089305668208671,0.00089305952949905,-0.00089305697921765,0.00089305982665539,0.60886365426371,122718,2924,0.0037755655916217,0.0066536857875407,0.0037755655916186,14.001478835315,2.7211830682523e-05,2.7211830682523e-05,2.7211830682523e-05,2865459.5401966,0.014306618439347
22919200,0.99939912540977,0.015468698885675,0.0046812467025224,0.006106205480637,0.0046812467025158,-0.00090872378681486,0.00090872038067166,-1.2863861808293e-09,-1.286384131326e-09,-2.7690084949283e-09,-5.1775734992719e-11,-0.0010226065591171,0.0010226024269753,-0.0010226070258327,0.001022602893647,-0.001022605713521,0.0010226033336027,-0.0010226061589498,0.0010226037790224,-0.00089385049022092,0.00089384895205906,-0.00089385022466661,0.00089384868649699,8.0821422025741e-10,-1.9879500978714e-09,1.8783883904652e-09,-3.0149825104127e-09,-0.0016060692077625,0.0016060680660293,-0.0017626150254314,0.0017626164027304,-0.0017626173108533,0.0017626154869312,-0.0017626166349316,0.0017626161950393,-0.0017626189204167,0.0017626152792873,-0.0014299296503476,0.0014299323734303,-0.0014299352179018,0.001429928370812,-0.0014299310168497,0.0014299309688584,-0.0014299345753812,0.0014299290399497,-1.1721811329945e-09,-1.1721802694621e-09,-0.00090872367175785,0.00090872049572696,-3.6588714712822e-09,1.1080118330937e-09,-0.0010226068121825,0.0010226022017473,-0.001022605246199,0.001022603779641,-0.0010226072711423,0.0010226026606758,-0.0010226056928191,0.0010226042262446,-0.00089384976528151,0.00089384914414464,-0.00089385002439661,0.00089384940328498,0.5567812645448,122718,2924,0.0037805339278446,0.0066688114056525,0.0037805339278411,15.355206914021,3.8041655312169e-05,3.8041655312169e-05,3.8041655312169e-05,2862393.4110836,0.014332038312188
23919200,0.99950196702152,0.015470483236519,0.0046817698216747,0.0061069435931757,0.0046817698216681,-0.00091290562638304,0.00091290198069742,-1.3769715016717e-09,-1.3769694661695e-09,-2.8447933929392e-09,-1.5569513635575e-10,-0.0010257115365932,0.0010257072077127,-0.0010257120028202,0.0010257076738957,-0.0010257107001969,0.0010257081049021,-0.0010257111451544,0.0010257085498509,-0.00089786234862508,0.00089786059665261,-0.00089786208235065,0.00089786033037055,7.9088742822607e-10,-1.9819967026848e-09,1.8602670321779e-09,-3.0085843199319e-09,-0.0016087507799065,0.0016087496265102,-0.0017656143535911,0.0017656157036043,-0.0017656166310967,0.0017656147959721,-0.0017656159557362,0.0017656155036908,-0.0017656182333049,0.0017656145961061,-0.0014323430108423,0.0014323457058247,-0.001432348555872,0.0014323417288813,-0.0014323443765599,0.0014323443020218,-0.001432347913566,0.001432342397831,-1.2597602476156e-09,-1.2597593987739e-09,-0.00091290550836349,0.00091290209871525,-3.7308288558865e-09,1.0064504944849e-09,-0.001025711786413,0.0010257069856566,-0.0010257102303841,0.0010257085535493,-0.0010257122448605,0.0010257074440727,-0.0010257106765125,0.0010257089996614,-0.00089786162026476,0.00089786079073501,-0.00089786188012008,0.00089786105061534,0.72402987913336,122718,2924,0.003797879277157,0.006679932910771,0.0037978792771535,17.007784989554,5.126227991643e-05,5.126227991643e-05,5.126227991643e-05,2884277.118002,0.014378501422835
24919200,0.99959343658733,0.015471783667623,0.0046821467749423,0.006107490117745,0.0046821467749356,-0.00090772340063449,0.00090771999360743,-1.2914371112382e-09,-1.2914350088331e-09,-2.6741990158995e-09,-1.5769112667374e-10,-0.0010266367539109,0.0010266326587568,-0.0010266372204836,0.0010266331252857,-0.0010266359717702,0.0010266334979518,-0.0010266364178355,0.0010266339440081,-0.00089315956898115,0.00089315795710575,-0.00089315929697331,0.00089315768509028,7.6525993821654e-10,-1.8308848029907e-09,1.8247356139325e-09,-2.8507720892225e-09,-0.0016174611383397,0.0016174601074813,-0.0017726948232763,0.0017726961746907,-0.0017726970374052,0.0017726953292239,-0.001772696366728,0.0017726960306516,-0.0017726985809198,0.0017726951852319,-0.0014417020111149,0.0014417046969981,-0.0014417073529801,0.0014417008964544,-0.0014417033654662,0.0014417033059629,-0.0014417067138167,0.0014417015613248,-1.1879980409165e-09,-1.1879971318266e-09,-0.00090772329628503,0.00090772009795514,-3.5684825016914e-09,9.835376110671e-10,-0.0010266370134891,0.0010266324249049,-0.0010266355184483,0.0010266339318547,-0.0010266374727745,0.0010266328841589,-0.0010266359654827,0.0010266343788724,-0.0008931588509371,0.00089315812954616,-0.00089315911724309,0.00089315839587758,0.59469350234624,122718,2924,0.0037764462924578,0.0067158654481789,0.0037764462924543,18.349402946151,6.1995223569208e-05,6.1995223569208e-05,6.1995223569208e-05,2744092.4831145,0.014371501150443
25919200,0.99967769532974,0.015473193335601,0.0046825613288691,0.0061080706778698,0.0046825613288625,-0.00091534813058925,0.00091534365633552,-1.705795763353e-09,-1.7057937145703e-09,-2.9437688193612e-09,-7.2840568629452e-10,-0.0010292388744426,0.0010292339779274,-0.0010292394121042,0.0010292345155456,-0.0010292381915861,0.0010292347163073,-0.0010292387074789,0.0010292352321911,-0.00090036361304253,0.00090036102996788,-0.00090036335580267,0.00090036077272005,6.388013442339e-10,-1.665898947666e-09,1.6680841130577e-09,-2.6590202534035e-09,-0.0016186670553459,0.0016186660599899,-0.0017768947555221,0.001776895921797,-0.0017768969391239,0.0017768952853166,-0.0017768962883426,0.0017768959677469,-0.0017768984720077,0.0017768953313135,-0.0014406773079809,0.0014406797867734,-0.0014406823736865,0.0014406763908631,-0.0014406786244598,0.0014406784328048,-0.001440681751139,0.0014406770396708,-1.594120287293e-09,-1.5941194709062e-09,-0.00091534801814142,0.00091534376878203,-3.8015373877011e-09,3.9352946357829e-10,-0.0010292391154074,0.0010292337611569,-0.0010292377415238,0.0010292351486607,-0.0010292396458037,0.001029234291522,-0.0010292382581867,0.0010292356653071,-0.00090036291130099,0.00090036121598587,-0.00090036316300854,0.00090036146771872,0.69724372931637,122718,2924,0.0038080470789673,0.0067209525878408,0.0038080470789646,20.729754879901,8.1038039039206e-05,8.1038039039206e-05,8.1038039039206e-05,2807536.9426154,0.014440743665653
26919200,0.99974637297479,0.015474351546607,0.0046829004152681,0.0061085507160771,0.0046829004152615,-0.00091143894742205,0.00091143628493761,-1.0092827758944e-09,-1.0092806756829e-09,-2.2471350393851e-09,-2.5613896248346e-11,-0.0010295789977011,0.001029575641168,-0.0010295794048995,0.0010295760483228,-0.0010295783075715,0.0010295763827251,-0.0010295786962147,0.0010295767713594,-0.0008966583009624,0.00089665719314585,-0.00089665801799252,0.0008966569101685,6.5296990562937e-10,-1.6410022946828e-09,1.6579431989145e-09,-2.6106683844611e-09,-0.0016240144537623,0.0016240134967258,-0.0017808284606335,0.0017808296614365,-0.0017808304818515,0.0017808288814408,-0.0017808298455087,0.0017808295474355,-0.0017808318667898,0.0017808287674868,-0.0014467512057713,0.0014467536623292,-0.001446756119508,0.0014467502362358,-0.0014467524913258,0.0014467523413813,-0.0014467555112826,0.0014467508693073,-9.0913782794871e-10,-9.0913695237252e-10,-0.00091143884646648,0.00091143638589168,-3.094600488844e-09,1.0607703389011e-09,-0.0010295792416597,0.0010295754205555,-0.0010295778763295,0.0010295767967444,-0.0010295796419864,0.0010295758208507,-0.0010295782657108,0.0010295771861092,-0.00089665759265107,0.00089665733421128,-0.00089665787043248,0.00089665761201779,0.70380192566419,122718,2924,0.0037918746974497,0.0067430034701611,0.0037918746974467,21.292222124872,8.5537776998974e-05,8.5537776998974e-05,8.5537776998974e-05,2720799.9768551,0.014430324834894
27919200,0.99980482102737,0.015475412175705,0.0046832126476067,0.0061089868804986,0.0046832126476001,-0.00091252482494234,0.00091252111331507,-1.4152773552814e-09,-1.4152752677505e-09,-2.6053827174328e-09,-4.8377775836274e-10,-0.0010307973724703,0.0010307931523703,-0.00103079785314,0.0010307936329962,-0.0010307967168772,0.0010307938598054,-0.0010307971776832,0.0010307943206024,-0.00089773115328827,0.00089772915188298,-0.00089773089017002,0.00089772888875748,6.2006824657599e-10,-1.5836162849037e-09,1.6015320884117e-09,-2.5308566698307e-09,-0.0016281800107694,0.0016281790772362,-0.0017857558262393,0.0017857569659175,-0.0017857578849463,0.0017857563230242,-0.0017857572636244,0.0017857569736027,-0.0017857593223944,0.0017857563307564,-0.0014500387158396,0.0014500410952833,-0.0014500435537325,0.0014500378573424,-0.001450039971381,0.0014500398048567,-0.0014500429596643,0.0014500384758782,-1.3168125725151e-09,-1.3168117154972e-09,-0.00091252472570975,0.00091252121254613,-3.4322895419987e-09,5.7815190176159e-10,-0.001030797610147,0.0010307929374253,-0.001030796295241,0.0010307942647439,-0.0010307980840831,0.0010307934113303,-0.001030796756736,0.0010307947262225,-0.00089773047412432,0.00089772930362573,-0.00089773073214328,0.0008977295616697,0.75606031277499,122718,2924,0.0037963903478227,0.0067602408026203,0.0037963903478195,22.916412750128,9.8531302001027e-05,9.8531302001027e-05,9.8531302001027e-05,2696916.1019624,0.014456971056643
28919200,0.99985210788786,0.015476235763664,0.00468345476018,0.0061093262433109,0.0046834547601734,-0.00091114868849099,0.00091114540747306,-1.2529844814746e-09,-1.2529823840275e-09,-2.4453322773345e-09,-3.2374973757951e-10,-0.0010306944536435,0.0010306906069069,-0.0010306949338156,0.0010306910870355,-0.0010306937977062,0.0010306913144145,-0.0010306942580903,0.0010306917747899,-0.00089660835989793,0.00089660672741898,-0.00089660809534632,0.00089660646286039,6.2079814230759e-10,-1.5748081612505e-09,1.5998902398631e-09,-2.5198163452227e-09,-0.0016312782732509,0.0016312773491239,-0.0017888775396407,0.0017888786819217,-0.0017888795936792,0.0017888780426064,-0.0017888789737728,0.0017888786915966,-0.0017888810278744,0.0017888780523283,-0.0014530737406178,0.0014530761197325,-0.0014530785637124,0.0014530728918099,-0.0014530749931188,0.0014530748324352,-0.001453077971025,0.0014530735089044,-1.1569796090671e-09,-1.1569787415054e-09,-0.00091114859171159,0.00091114550425086,-3.272655390036e-09,7.3350957775925e-10,-0.0010306946929256,0.0010306903901897,-0.0010306933792613,0.0010306917162928,-0.0010306951664148,0.0010306908636479,-0.0010306938403193,0.0010306921773347,-0.0008966076824877,0.0008966068745824,-0.00089660794197447,0.00089660713409393,0.72578852546025,122718,2924,0.0037906979444142,0.0067730331109208,0.003790697944411,23.983241062311,0.00010706592849849,0.00010706592849849,0.00010706592849849,2631447.0628755,0.014458404150493
29919200,0.9998904422423,0.015476889242876,0.0046836472878396,0.0061095946672031,0.0046836472878329,-0.00091335613394757,0.00091335256989814,-1.3603667473105e-09,-1.3603646634736e-09,-2.5199938009945e-09,-4.6097605823314e-10,-0.0010321522813701,0.0010321482098789,-0.0010321527492717,0.0010321486777367,-0.0010321516452613,0.0010321488964548,-0.0010321520937972,0.0010321493449817,-0.00089844793150549,0.0008984460288696,-0.00089844766568419,0.00089844576304095,5.9552477289168e-10,-1.5439194787021e-09,1.5499059298495e-09,-2.4650022591083e-09,-0.0016353232809176,0.0016353223617462,-0.0017942148683638,0.0017942159643356,-0.001794216876131,0.0017942153459745,-0.0017942162720734,0.0017942159786569,-0.0017942182799035,0.0017942153603426,-0.0014556869158513,0.0014556892149759,-0.0014556916337714,0.0014556860882698,-0.0014556881366752,0.0014556879599963,-0.0014556910562139,0.0014556866898067,-1.2647378227306e-09,-1.2647369827416e-09,-0.00091335603761342,0.0009133526662308,-3.323897074226e-09,5.7149895337868e-10,-0.0010321525126647,0.001032148000657,-0.001032151235619,0.0010321492899465,-0.001032152974002,0.0010321484619632,-0.0010321516847866,0.0010321497390977,-0.00089844726134134,0.00089844616632436,-0.0008984475221474,0.00089844642715537,0.71000747220363,122718,2924,0.0037998633268386,0.006789793782053,0.0037998633268355,25.463884513834,0.00011891107611068,0.00011891107611068,0.00011891107611068,2646528.3536524,0.014493998716854
30919200,0.99992098902793,0.015477432188668,0.0046838075118424,0.0061098171649902,0.0046838075118357,-0.0009161324578549,0.00091612870404015,-1.4338782459873e-09,-1.4338761627659e-09,-2.5624689497994e-09,-5.6774404004459e-10,-0.0010345245078549,0.0010345202954596,-0.0010345249885365,0.0010345207760975,-0.0010345238926133,0.0010345209604093,-0.0010345243538698,0.0010345214216569,-0.00090111455574453,0.00090111247647099,-0.0009011142925032,0.00090111221322243,5.725594745246e-10,-1.5044282541907e-09,1.5020030251915e-09,-2.4015383821215e-09,-0.0016386850523842,0.0016386841488727,-0.001798099249121,0.0017981003019545,-0.0017981012360273,0.0017980997373776,-0.001798100647656,0.0017981003535973,-0.0017981026346254,0.0017980997890672,-0.0014586107503777,0.001458612976955,-0.0014586153706488,0.0014586099707331,-0.0014586119393578,0.0014586117546878,-0.0014586148081607,0.001458610556618,-1.3404823326996e-09,-1.3404814944164e-09,-0.00091613236379958,0.0009161287980939,-3.345130601674e-09,4.3808216594385e-10,-0.0010345247329052,0.0010345200918908,-0.0010345234934831,0.0010345213438581,-0.0010345252071841,0.0010345205661385,-0.0010345239553315,0.0010345218056902,-0.00090111389847768,0.00090111260628541,-0.00090111415680162,0.0009011128646343,0.73994391278327,122718,2924,0.0038113859430405,0.0068037139827363,0.0038113859430373,27.120228358274,0.00013216182686619,0.00013216182686619,0.00013216182686619,2637632.0392404,0.014531498543316
31919200,0.99994510212617,0.015477867285078,0.0046839359549966,0.006109995375091,0.00468393595499,-0.00091831074527739,0.00091830647423499,-1.6339855447345e-09,-1.6339834502922e-09,-2.7114720968096e-09,-8.2203708865474e-10,-0.0010379403981428,0.0010379357694433,-0.0010379409159007,0.0010379362871574,-0.0010379398177264,0.0010379363987081,-0.0010379403156344,0.0010379368966071,-0.00090333393633076,0.00090333139955038,-0.00090333367752866,0.00090333114074089,5.4296344395714e-10,-1.4338900995829e-09,1.4456627442308e-09,-2.3057928650225e-09,-0.0016442851399491,0.0016442842759761,-0.0018034836166656,0.0018034846211329,-0.0018034855958569,0.0018034841533993,-0.0018034850240258,0.0018034847520067,-0.00180348700328,0.00180348428432,-0.0014642081973759,0.001464210348922,-0.0014642126919658,0.0014642075138211,-0.0014642093524757,0.0014642091617081,-0.0014642121451305,0.0014642080832488,-1.5454073126468e-09,-1.545406460717e-09,-0.00091831065605646,0.0009183065634544,-3.4744847579933e-09,1.5325415690945e-10,-0.0010379406188232,0.0010379355693242,-0.0010379394321029,0.0010379367693764,-0.0010379411304377,0.0010379360809075,-0.0010379399305379,0.001037937267795,-0.00090333329680464,0.00090333152060931,-0.00090333355092966,0.00090333177475914,0.75108851792091,122718,2924,0.0038204436726822,0.0068268650845375,0.0038204436726791,29.265748924172,0.00014932599139338,0.00014932599139338,0.00014932599139338,2599731.9868055,0.014573371802111
32919200,0.99996179332986,0.015478135462663,0.0046840149466028,0.0061101055694643,0.0046840149465961,-0.00091628268805054,0.00091628075111627,-7.347059928061e-10,-7.347038993384e-10,-1.8817232957387e-09,1.5511227130894e-10,-0.0010364564837768,0.0010364538164955,-0.0010364568331758,0.0010364541658507,-0.0010364558501876,0.0010364544967188,-0.0010364561831327,0.001036454829655,-0.00090132177088989,0.00090132119099126,-0.00090132147953341,0.00090132089962758,5.8295021824157e-10,-1.5187188940626e-09,1.469965535856e-09,-2.3733133685528e-09,-0.0016451731111881,0.0016451722039264,-0.0018046858783585,0.0018046869341934,-0.0018046877016592,0.0018046862270219,-0.0018046871402041,0.001804686814685,-0.0018046889635678,0.0018046861075604,-0.0014646457194199,0.0014646478686653,-0.0014646501884759,0.001464644836164,-0.0014646468533925,0.0014646467032398,-0.0014646496529694,0.0014646453937951,-6.483531596972e-10,-6.4835231234073e-10,-0.00091628260108235,0.00091628083808301,-2.6302023003311e-09,1.110752567209e-09,-0.0010364567014716,0.0010364536199197,-0.0010364554718122,0.0010364548594657,-0.0010364570447465,0.0010364539631633,-0.0010364558053805,0.0010364551930176,-0.00090132110659558,0.00090132127157555,-0.00090132139306719,0.00090132155807193,0.66890710423291,122718,2924,0.0038120426201923,0.0068305291229399,0.0038120426201894,29.173907539662,0.0001485912603173,0.0001485912603173,0.0001485912603173,2580043.7339266,0.014560044384023
33919200,0.99997384190072,0.015478349094349,0.0046840782417375,0.0061101926108805,0.0046840782417309,-0.00091977318656784,0.00091977049570539,-1.0176740342127e-09,-1.0176719684765e-09,-2.1615935098756e-09,-1.2357101254921e-10,-0.0010381638418472,0.0010381605300113,-0.0010381641895272,0.0010381608776474,-0.0010381632082443,0.0010381612104997,-0.0010381635394808,0.0010381615417271,-0.00090458867729659,0.0009045874516601,-0.00090458839061238,0.00090458716496858,5.793389892092e-10,-1.5368211290518e-09,1.4652270688482e-09,-2.3900317152305e-09,-0.0016456793745061,0.0016456784457905,-0.0018056278693515,0.0018056289129507,-0.0018056296954379,0.0018056282003364,-0.0018056291349348,0.0018056287872469,-0.001805630961084,0.0018056280746794,-0.0014648137177554,0.0014648158523423,-0.0014648182053734,0.0014648128151701,-0.0014648148502362,0.0014648146884351,-0.0014648176708394,0.0014648133718145,-9.2804866292686e-10,-9.2804784404011e-10,-0.00091977309637373,0.00091977058589802,-2.9050509123652e-09,8.3378544818057e-10,-0.0010381640559767,0.0010381603372066,-0.001038162827185,0.0010381615757577,-0.0010381643974811,0.0010381606786798,-0.0010381631590631,0.0010381619076193,-0.0009045880149526,0.00090458753960574,-0.00090458829668774,0.00090458782136579,0.73731070947624,122718,2924,0.0038265078990569,0.006832662303347,0.0038265078990539,30.072065399953,0.00015577652319963,0.00015577652319963,0.00015577652319963,2627501.1577223,0.01459154989455
34919200,0.99998327977467,0.015478521413961,0.0046841292084077,0.0061102629971525,0.0046841292084011,-0.00092414740551022,0.00092414170295374,-2.1865150880017e-09,-2.1865129784782e-09,-3.2002938793824e-09,-1.4447262846037e-09,-0.0010444774179423,0.0010444715989258,-0.0010444780376514,0.0010444722185911,-0.0010444768838825,0.0010444721821566,-0.0010444774819935,0.0010444727802586,-0.00090909723931275,0.0009090934904319,-0.00090909699657134,0.00090909324768337,5.0405760835665e-10,-1.3527499760933e-09,1.364501249894e-09,-2.1841459852512e-09,-0.0016541473053201,0.0016541464819703,-0.0018137797521053,0.0018137806767846,-0.0018137817787883,0.0018137804036651,-0.0018137812334032,0.0018137809743837,-0.001813783260149,0.0018137807013112,-0.0014735126004671,0.0014735146381679,-0.0014735169646613,0.0014735120655124,-0.0014735137017254,0.0014735135064128,-0.0014735164432978,0.0014735126083582,-2.1034623016412e-09,-2.1034614542406e-09,-0.00092414732187284,0.00092414178658961,-3.9293714375763e-09,-5.1614612951651e-10,-0.0010444776298132,0.001044471406562,-0.0010444765176078,0.0010444725342775,-0.0010444782436979,0.0010444720204157,-0.0010444771161789,0.0010444731328321,-0.00090909663497305,0.00090909360861606,-0.00090909687324559,0.00090909384691339,0.75966574011916,122718,2924,0.0038446824972344,0.0068676631807487,0.0038446824972313,33.573889215545,0.00018379111372436,0.00018379111372436,0.00018379111372436,2551976.7098178,0.014663955477998
35919200,0.9999902009348,0.015478646273382,0.004684166214586,0.0061103138442166,0.0046841662145794,-0.0009302027437975,0.00093019647145711,-2.408321298886e-09,-2.4083191914099e-09,-3.3067755267794e-09,-1.7891221480759e-09,-0.0010512148778801,0.0010512086410285,-0.0010512155361651,0.0010512092992698,-0.0010512144211072,0.0010512091444077,-0.0010512150575913,0.0010512097808829,-0.00091517050181154,0.00091516620786587,-0.00091517025974497,0.00091516596579232,4.2753816912005e-10,-1.1969108056377e-09,1.2556051057141e-09,-1.9992137605684e-09,-0.0016627280870705,0.0016627273400724,-0.0018224681325158,0.0018224689555166,-0.0018224701093461,0.0018224688302424,-0.0018224695840146,0.0018224693800325,-0.0018224715609077,0.0018224692548051,-0.0014818154800468,0.001481817384038,-0.001481819583171,0.0014818151254365,-0.0014818165408178,0.0014818162937616,-0.0014818190795263,0.0014818156498769,-2.329173576199e-09,-2.3291727327101e-09,-0.00093020266408747,0.00093019655116574,-4.0109379495695e-09,-8.9434848772349e-10,-0.0010512150823331,0.0010512084543058,-0.0010512140696905,0.0010512094832742,-0.0010512157351316,0.001051209107073,-0.0010512147064706,0.0010512101200379,-0.00091516991213284,0.00091516631294303,-0.00091517015019316,0.00091516655102814,0.75000108564395,122718,2924,0.0038698267777917,0.0069031579459562,0.0038698267777888,37.529960751615,0.00021543968601292,0.00021543968601292,0.00021543968601292,2516963.1628928,0.014751002035718
36919200,0.99999416810362,0.015478708092807,0.004684184487745,0.0061103391173236,0.0046841844877384,-0.00092782297252428,0.00092782163865553,-5.0767925182822e-10,-5.076771518262e-10,-1.5735805173075e-09,3.0172000004346e-10,-0.001048629434647,0.0010486273398327,-0.0010486297340378,0.0010486276391798,-0.0010486288502324,0.0010486279668165,-0.0010486291349876,0.0010486282515628,-0.00091272626351156,0.00091272610425806,-0.00091272597738889,0.00091272581812836,5.2551260865641e-10,-1.408669367206e-09,1.3314888578705e-09,-2.1847660461323e-09,-0.00166184440455,0.0016618435476635,-0.0018222404755155,0.0018222414274178,-0.0018222421399489,0.0018222407675452,-0.0018222416296821,0.0018222413014804,-0.0018222432941784,0.0018222406416547,-0.0014802684338531,0.0014802703641791,-0.001480272565056,0.0014802676398503,-0.0014802694639623,0.0014802693055131,-0.0014802720789094,0.0014802681461211,-4.3076728048763e-10,-4.3076644589547e-10,-0.00092782289509774,0.00092782171608066,-2.2546977558842e-09,1.1680354685085e-09,-0.001048629634156,0.0010486271596891,-0.0010486285080173,0.0010486282946827,-0.0010486299279804,0.0010486274534823,-0.001048628793312,0.0010486285799611,-0.00091272564023945,0.00091272615445322,-0.00091272592180797,0.00091272643604646,0.64796982134507,122718,2924,0.0038599631749679,0.0068995055268516,0.003859963174965,36.859428018625,0.000210075424149,0.000210075424149,0.000210075424149,2512987.8566497,0.014727276159945
37919200,0.99999659342818,0.015478743141798,0.0046841948507601,0.0061103534402845,0.0046841948507535,-0.00093236189726731,0.00093235901810705,-1.098853438063e-09,-1.0988513676569e-09,-2.2079068322504e-09,-2.5218993247656e-10,-0.001049995867768,0.0010499924389898,-0.0010499962786506,0.0010499928498286,-0.0010499952618087,0.0010499930915929,-0.0010499956554379,0.0010499934852133,-0.00091700803564047,0.0009170066491756,-0.00091700777234394,0.00091700638587178,5.4693361352413e-10,-1.4817495093637e-09,1.3450801205491e-09,-2.2483916790011e-09,-0.0016609108385197,0.0016609099314079,-0.001822694774701,0.0018226957167189,-0.0018226965887882,0.001822695172127,-0.0018226960840558,0.001822695700615,-0.0018226978982058,0.00182269515607,-0.0014785174691437,0.0014785193996445,-0.0014785217602239,0.0014785166774856,-0.0014785184884559,0.0014785183517489,-0.0014785212807727,0.0014785171770704,-1.0191967814879e-09,-1.0191959762331e-09,-0.00093236181715526,0.00093235909821767,-2.8770102157539e-09,6.076365335153e-10,-0.001049996062293,0.0010499922647322,-0.0010499949194112,0.0010499934187737,-0.0010499964674682,0.0010499926698762,-0.0010499953136869,0.0010499938130331,-0.00091700743542898,0.00091700672197262,-0.00091700769379925,0.0009170069803676,0.60087836242104,122718,2924,0.0038787638272318,0.0068957035470211,0.0038787638272289,37.672199756783,0.00021657759805426,0.00021657759805426,0.00021657759805426,2562079.3746755,0.014761557234527
38880000,0.99999795531575,0.015478766511479,0.0046842017933633,0.0061103629247586,0.0046842017933567,-0.00093307481483855,0.00093307332492009,-5.5677152748445e-10,-5.5676945510106e-10,-1.7687100520227e-09,3.9686618448107e-10,-0.0010499677202523,0.0010499654356084,-0.0010499680320833,0.0010499657473956,-0.0010499670434311,0.0010499661593797,-0.0010499673398545,0.0010499664557941,-0.0009176464513213,0.00091764627690485,-0.00091764616936494,0.00091764599494124,6.073207603853e-10,-1.6172206226083e-09,1.4077010806394e-09,-2.3834889382843e-09,-0.0016590576842771,0.001659056704478,-0.0018207666310226,0.0018207676438335,-0.0018207684013702,0.0018207669117644,-0.0018207678956188,0.0018207674411185,-0.0018207696660294,0.0018207667090961,-0.0014769570574833,0.0014769590401604,-0.0014769614786907,0.0014769560647968,-0.0014769580785684,0.0014769579906489,-0.0014769610000684,0.0014769565634503,-4.7666573993884e-10,-4.76664925949e-10,-0.00093307473428963,0.00093307340546755,-2.4374090400034e-09,1.2570408935981e-09,-0.0010499679153599,0.0010499652620175,-0.0010499666995373,0.0010499664867979,-0.0010499682213407,0.001049965567967,-0.0010499669967594,0.0010499667840036,-0.00091764583178668,0.00091764633153574,-0.00091764610844393,0.00091764660821785,0.71322038727127,122718,2924,0.003881712905816,0.0068880487686047,0.003881712905813,37.196240974315,0.00021276992779452,0.00021276992779452,0.00021276992779452,2581871.2518271,0.014759772571965
