time,ASR_ext,ASR_strain,ASR_strain_xx,ASR_strain_yy,ASR_strain_zz,disp_x_101,disp_x_102,disp_x_103,disp_x_104,disp_x_105,disp_x_106,disp_x_p10_neg,disp_x_p10_pos,disp_x_p11_neg,disp_x_p11_pos,disp_x_p12_neg,disp_x_p12_pos,disp_x_p13_neg,disp_x_p13_pos,disp_x_p14_neg,disp_x_p14_pos,disp_x_p15_neg,disp_x_p15_pos,disp_x_p16_neg,disp_x_p16_pos,disp_x_p1_neg,disp_x_p1_pos,disp_x_p2_neg,disp_x_p2_pos,disp_x_p3_neg,disp_x_p3_pos,disp_x_p4_neg,disp_x_p4_pos,disp_x_p5_neg,disp_x_p5_pos,disp_x_p6_neg,disp_x_p6_pos,disp_x_p7_neg,disp_x_p7_pos,disp_x_p8_neg,disp_x_p8_pos,disp_x_p9_neg,disp_x_p9_pos,disp_y_101,disp_y_102,disp_y_103,disp_y_104,disp_y_105,disp_y_106,disp_y_p10_neg,disp_y_p10_pos,disp_y_p11_neg,disp_y_p11_pos,disp_y_p12_neg,disp_y_p12_pos,disp_y_p1_neg,disp_y_p1_pos,disp_y_p2_neg,disp_y_p2_pos,disp_y_p3_neg,disp_y_p3_pos,disp_y_p4_neg,disp_y_p4_pos,disp_y_p5_neg,disp_y_p5_pos,disp_y_p6_neg,disp_y_p6_pos,disp_y_p7_neg,disp_y_p7_pos,disp_y_p8_neg,disp_y_p8_pos,disp_y_p9_neg,disp_y_p9_pos,disp_z_101,disp_z_102,disp_z_103,disp_z_104,disp_z_105,disp_z_106,disp_z_p10_neg,disp_z_p10_pos,disp_z_p11_neg,disp_z_p11_pos,disp_z_p12_neg,disp_z_p12_pos,disp_z_p13_neg,disp_z_p13_pos,disp_z_p14_neg,disp_z_p14_pos,disp_z_p15_neg,disp_z_p15_pos,disp_z_p16_neg,disp_z_p16_pos,disp_z_p1_neg,disp_z_p1_pos,disp_z_p2_neg,disp_z_p2_pos,disp_z_p3_neg,disp_z_p3_pos,disp_z_p4_neg,disp_z_p4_pos,disp_z_p5_neg,disp_z_p5_pos,disp_z_p6_neg,disp_z_p6_pos,disp_z_p7_neg,disp_z_p7_pos,disp_z_p8_neg,disp_z_p8_pos,disp_z_p9_neg,disp_z_p9_pos,humidity,ndof,nelem,strain_xx,strain_yy,strain_zz,temp,thermal_strain_xx,thermal_strain_yy,thermal_strain_zz,vonmises,vstrain
14391759,0,0,0,0,0,0,0,0,0,0,0,0,0,0,0,0,0,0,0,0,0,0,0,0,0,0,0,0,0,0,0,0,0,0,0,0,0,0,0,0,0,0,0,0,0,0,0,0,0,0,0,0,0,0,0,0,0,0,0,0,0,0,0,0,0,0,0,0,0,0,0,0,0,0,0,0,0,0,0,0,0,0,0,0,0,0,0,0,0,0,0,0,0,0,0,0,0,0,0,0,0,0,0,0,0,0,0,0,0,0,0,0,0,0,0,0,0,0,0,0,0,0,0
15391759,0.10054933691868,0.0015492377304913,0.00051641257683045,0.00051641257683045,0.00051641257683045,-0.00014716296271262,0.00014708219726084,-1.5533793453439e-07,-1.2672883011033e-07,-2.0962574554493e-08,-4.5719242917505e-09,-0.00013080549482637,0.0001302346602101,-0.00014602837713069,0.00014599533683759,-0.00014600440850535,0.0001463165993849,-0.00013090926095318,0.00013034715698954,-0.00013082134936415,0.00013021861856256,-0.00014604421050372,0.00014597914115907,-0.00014602025180778,0.00014630041319209,-0.00015434981808123,0.00015428074681717,-0.00015432550626675,0.00015438198917869,-0.00015434452770735,0.00015428626054431,-0.00015432021137175,0.00015438749850245,-0.00014551847046132,0.0001452439852127,-0.0001454412065788,0.00014509112085481,-0.00014552384523232,0.00014523852752288,-0.00014544659063896,0.00014508567248609,-0.00013089342473202,0.00013036321697904,5.2575448264711e-09,-1.0852446534046e-08,-3.0484412055814e-08,2.5128182968333e-08,-0.00015925356989802,0.00015924818736517,-0.00015624699250515,0.00015630152310613,-0.00015792926618398,0.00015792103576128,-0.00015788203412359,0.0001578421122716,-0.00016116772388287,0.00016114925707472,-0.00016116167943562,0.00016118031268186,-0.00016116856707487,0.00016113928275117,-0.00016118169212863,0.00016118950780355,-0.00015630509278211,0.00015623990061332,-0.00015630494301652,0.00015634864908598,-0.00015791648565095,0.00015794533861044,-0.00015770379020725,0.00015770095169254,-0.00015625541174675,0.00015620104392455,1.7942046680643e-08,2.4210155123756e-07,-0.00015245541249343,0.00015248633548591,4.2452357049861e-08,-1.3174702254713e-08,-0.00015057024474986,0.00015054175225434,-0.0001511725331482,0.0001506987820346,-0.00015123568595499,0.00015113028524682,-0.00015079647614353,0.00015219701586868,-0.0001505159673035,0.00015059634765803,-0.00015111805561318,0.00015075321265625,-0.00015118132398256,0.0001511848312272,-0.00015629736375836,0.0001563042487558,-0.00015631587418472,0.0001562856663786,-0.00015627903935232,0.00015624679393569,-0.00015629760424849,0.00015622826596944,-0.00015244233180874,0.00015287803168889,-0.00015233347267487,0.00015235233659622,-0.00015231501044262,0.00015237095306182,-0.0001524237457898,0.0001528965241716,-0.00015085100656435,0.00015214267393226,0.70055894083924,122718,2924,0.00061282374917956,0.0006633237418825,0.00063509265451084,27.188289267375,0.000132706314139,0.000132706314139,0.000132706314139,1233751.1283046,0.0019130708338713
16391759,0.18930467015947,0.0030042804331969,0.00097732330534649,0.0010276038439894,0.00099935328386108,-0.00024447629598267,0.00024425631935637,-5.0786280426731e-07,-2.7368118411089e-07,-6.9033567334304e-08,-2.360085553496e-08,-0.00020789318310667,0.00020654513179857,-0.00024682246800379,0.00024668181178627,-0.00024670955648424,0.00024755971907438,-0.00020832222970089,0.00020660839742398,-0.00020793702027204,0.00020650070317575,-0.00024686634271402,0.00024663693614265,-0.00024675344327787,0.00024751485301194,-0.00025924586405218,0.00025900101194153,-0.000259130081898,0.00025934259169389,-0.00025923110316962,0.00025901633145559,-0.00025911531574961,0.0002593579066912,-0.00024376565689319,0.00024285313615009,-0.00024340920054309,0.00024256384716132,-0.00024378056692581,0.00024283800435722,-0.00024342412059048,0.00024254872547781,-0.00020827841158175,0.00020665284703597,1.2938606286151e-08,-3.1600618105764e-08,-1.0566128788999e-07,8.7654590072648e-08,-0.00028007960924872,0.000280061537615,-0.00027509643118731,0.00027528275964076,-0.00027756444404494,0.00027752523046489,-0.00027748199042937,0.0002773552857676,-0.00028302386858174,0.00028295648454212,-0.0002829953024366,0.00028305681076428,-0.00028302160874305,0.00028292432212581,-0.00028305142409319,0.00028308302897502,-0.00027529382651866,0.00027507164221541,-0.00027536750240083,0.00027552389906195,-0.00027751432884242,0.00027760399587734,-0.0002770518466073,0.00027705402273749,-0.00027515888005375,0.00027496662488232,1.0872593648183e-07,6.8288734630596e-07,-0.00025921546943594,0.00025927321644387,1.3459149709322e-07,-5.8758241321914e-08,-0.00026084532991128,0.00026084129086088,-0.00026113494189087,0.00025954993409573,-0.00026129625571482,0.00026097846933329,-0.00026147674449194,0.00026541446691004,-0.0002606565165355,0.00026103106083679,-0.00026094554272932,0.00025973915867003,-0.00026110720133249,0.00026116804036787,-0.00026615634107288,0.00026621274898063,-0.00026622070279849,0.00026614820294616,-0.00026610373111354,0.00026594515765502,-0.00026616825128548,0.00026588076984595,-0.00026159787031185,0.00026279650559103,-0.00026126555927011,0.00026142092640523,-0.00026120133901513,0.00026148559677056,-0.00026153328985638,0.00026286081498388,-0.00026166632403308,0.00026522546321178,0.7587163515091,122718,2924,0.0010176843537137,0.0011662741696007,0.0010796000038899,24.444989989966,0.00011075991991973,0.00011075991991973,0.00011075991991973,1894731.3746785,0.0032688950503538
17391759,0.26838988127521,0.0041580635571208,0.0013188509488486,0.0014604469991221,0.00137876560915,-0.00031491842175542,0.00031444458443479,-1.0822942914192e-06,-5.097689037817e-07,-1.4100118671571e-07,-4.0624274415597e-08,-0.00024708518351008,0.00024472159115583,-0.0003198631549119,0.00031951136971074,-0.0003195875088078,0.00032122250842339,-0.00024810505502276,0.00024463736190676,-0.00024718218686655,0.00024462337275549,-0.00031996001655769,0.00031941215678188,-0.00031968441814844,0.00032112333293526,-0.00034117468271333,0.00034062564372623,-0.00034089957569075,0.00034132209495291,-0.00034114209987452,0.00034065947030828,-0.000340866970442,0.00034135590142753,-0.0003123531768012,0.00031036710416617,-0.00031151152888875,0.0003098163763053,-0.00031238611399986,0.00031033366322169,-0.0003115445118113,0.00030978298172338,-0.00024800813632516,0.00024473566908591,2.8549704539182e-08,-6.9922444294412e-08,-2.1961911096303e-07,1.7970462580226e-07,-0.00038302295784793,0.00038298289418147,-0.00037439175812709,0.00037477608244038,-0.00037720808314435,0.00037713059211438,-0.00037703949910589,0.00037676856291721,-0.00038853105246917,0.00038839122689752,-0.00038847122141233,0.0003885977233971,-0.00038852901324808,0.00038832322380656,-0.00038857785879156,0.00038863839518075,-0.00037481873683649,0.00037435494677447,-0.00037523043286278,0.00037554862340286,-0.00037710572276367,0.00037729447483681,-0.00037617736408219,0.00037617266801964,-0.00037453325015665,0.00037413558530658,2.8492380739782e-07,1.3035314212958e-06,-0.00034176291945351,0.00034185131440241,2.6459559825226e-07,-1.3487325765991e-07,-0.00034481410408736,0.00034493166877223,-0.00034597375603063,0.00034258489983867,-0.00034628728575098,0.00034568544855229,-0.00034615920406143,0.00035366176272454,-0.00034442408084284,0.00034532363377195,-0.00034558248765299,0.00034297577731058,-0.00034589675097233,0.00034607705986489,-0.00035454218193024,0.00035469901125378,-0.00035467518034775,0.0003545656574731,-0.0003544969652174,0.00035415985125287,-0.00035463028420785,0.00035402681715378,-0.00034641101546803,0.00034877759076516,-0.00034558984565152,0.00034602454652415,-0.00034545713968575,0.00034615811781655,-0.00034627759042346,0.00034891043999339,-0.0003465508071559,0.00035327138019747,0.68097528185715,122718,2924,0.0013103464674506,0.0015945539939027,0.0014231803146966,22.111452437929,9.2091619503432e-05,9.2091619503432e-05,9.2091619503432e-05,2426412.628989,0.0043374748046366
18391759,0.3253164733597,0.0048883936258366,0.0015296290983179,0.0017427352611982,0.0016160292663205,-0.00035243369864171,0.00035177246540185,-1.4964969951027e-06,-6.6780049805342e-07,-1.9657286176974e-07,-7.5185209754915e-08,-0.0002661459690178,0.00026313559038815,-0.00035995591210025,0.00035940385310759,-0.00035955773517296,0.00036169356360813,-0.00026758695571922,0.00026294685714555,-0.00026626299801546,0.000263016983443,-0.00036007292551565,0.00035928390734882,-0.00035967478137778,0.00036157363600749,-0.00038640626037659,0.00038561629879572,-0.00038601106840735,0.00038659720723591,-0.00038636677315361,0.0003856572656516,-0.00038597156542749,0.00038663816233316,-0.00034757023461218,0.00034477869519939,-0.0003463654913962,0.0003440894765729,-0.00034761005311148,0.00034473827332873,-0.00034640534030798,0.00034404908570737,-0.00026746997803454,0.00026306552476666,3.1092973261216e-08,-8.7692245964396e-08,-3.2279160865271e-07,2.6797053600602e-07,-0.00044370353328872,0.00044364854079867,-0.00043124746187966,0.00043181124058232,-0.00043315210225302,0.00043301542537329,-0.00043289528395887,0.00043252547828816,-0.00045360840467292,0.00045339685170647,-0.00045351187171673,0.00045369421617327,-0.00045359444709276,0.00045330324837265,-0.00045367177843319,0.0004537744757096,-0.00043187182409057,0.00043119887420694,-0.00043247609055883,0.00043296006573642,-0.00043299534960538,0.00043325251359473,-0.0004317864978384,0.00043181053121308,-0.00043149916745548,0.00043090600447196,4.0855878095884e-07,1.7437887390025e-06,-0.00038714984331354,0.00038723210356384,3.6497824986045e-07,-2.259998193144e-07,-0.00038993864403756,0.0003900940667707,-0.00039362699323975,0.00038894086553389,-0.00039407326882577,0.00039320831253345,-0.0003916260263792,0.00040149906487192,-0.00038936135556055,0.00039067390731489,-0.00039304807410219,0.00038951916196266,-0.00039349532178184,0.00039378758254192,-0.00040472914182362,0.00040495809481797,-0.00040492594173374,0.00040476088220064,-0.00040466548076206,0.00040419653329106,-0.00040486269424443,0.00040399973260035,-0.00039198834303731,0.00039521402304461,-0.00039087587609578,0.00039149161572546,-0.00039067944498433,0.00039168913297127,-0.00039179098705754,0.00039541061083377,-0.00039220542810554,0.00040092134340286,0.60484717275765,122718,2924,0.0014660731333312,0.0018469102846518,0.0016119921204805,17.505441539254,5.524353231403e-05,5.524353231403e-05,5.524353231403e-05,2830762.8582126,0.0049371477625791
19391759,0.38398980008958,0.0057938494991504,0.0017864003182414,0.0020971856019203,0.0019102635789887,-0.00040988389421237,0.00040895305445159,-2.0621385286445e-06,-8.9699049055865e-07,-2.808255618876e-07,-1.1013276656593e-07,-0.00029979057750429,0.00029591066037912,-0.00042371340984734,0.00042288721114198,-0.00042315185303384,0.0004259666324012,-0.00030181618083078,0.00029551067162697,-0.00029995523923307,0.00029574379055183,-0.00042387793888068,0.00042271848287766,-0.00042331643264105,0.00042579793575644,-0.00045113642635296,0.00045002048307355,-0.00045058053465464,0.00045136382331005,-0.00045108090549605,0.00045007808511639,-0.00045052498740475,0.00045142140480968,-0.00040474155546439,0.00040086835332944,-0.00040305106800468,0.00039994185585994,-0.00040479753289742,0.00040081150265258,-0.00040310709891466,0.0003998850609865,-0.00030165160652022,0.00029567764812026,4.3376557536347e-08,-1.2368574161482e-07,-4.6362913728925e-07,3.8582966616947e-07,-0.00053098787994172,0.00053090984280104,-0.00051649810421954,0.0005173085109148,-0.00051701304061206,0.00051681390383991,-0.00051666908912015,0.00051614205361081,-0.00054258763841571,0.00054228317485609,-0.00054244113898474,0.00054270309709952,-0.00054256377484017,0.00054214737772851,-0.00054268724348464,0.00054283726530221,-0.00051744840890007,0.00051648307160016,-0.00051849996413419,0.00051919818710214,-0.00051678147250603,0.00051714863276939,-0.00051518623806117,0.00051522550716881,-0.0005169093314097,0.00051605614926811,5.7865269382003e-07,2.3476123301301e-06,-0.00045479083953171,0.00045487321537611,4.9917616959787e-07,-3.5070847384962e-07,-0.00046264116537354,0.00046285691100588,-0.00046729963321268,0.00046070837628713,-0.0004679518806772,0.00046674621309497,-0.00046487194925868,0.00047827866738992,-0.00046181092591435,0.000463690658761,-0.00046646715279811,0.00046154002641955,-0.00046712073053021,0.0004675791917573,-0.00047535182752111,0.00047568779679846,-0.00047563485353352,0.00047540419575178,-0.0004752804932213,0.0004746550235318,-0.00047556409033003,0.00047437198944083,-0.00046297439789135,0.00046736383745704,-0.00046144202941492,0.0004623077420048,-0.00046115951981898,0.00046259174807234,-0.00046269061911971,0.00046764656708116,-0.00046570507916919,0.00047744781865786,0.73021614767059,122718,2924,0.0017045442738273,0.002209788723361,0.0018933374541593,17.480149051455,5.5041192411637e-05,5.5041192411637e-05,5.5041192411637e-05,3111813.6034057,0.0058245956459297
20391759,0.44842424832461,0.0068300138681006,0.0020700106854868,0.0025180702525913,0.0022419329300225,-0.00047243934642935,0.00047104836893118,-3.0087807116566e-06,-1.2832474423155e-06,-4.006141506801e-07,-1.4912504292132e-07,-0.00032105060578797,0.00031556474561518,-0.00049242237589212,0.00049120366553294,-0.00049156666219746,0.00049553131255424,-0.0003241214696234,0.00031502501084377,-0.00032129296009648,0.00031531931705142,-0.0004926646547689,0.00049095526625995,-0.00049180898047897,0.00049528292484054,-0.00052675420357613,0.00052507935564218,-0.00052593035157308,0.00052695659883275,-0.00052667239495003,0.0005251641769166,-0.00052584852033667,0.00052704140795537,-0.00046554558870367,0.00045987360126568,-0.00046304833991343,0.00045854427339566,-0.00046562800944466,0.00045978994669134,-0.00046313080566877,0.00045846066677051,-0.00032387918106429,0.0003152705360888,6.6240975095181e-08,-1.7959202145189e-07,-6.7430012939573e-07,5.646529955752e-07,-0.00063886371776651,0.00063875370307323,-0.00062246684158832,0.00062365343508292,-0.00062206008800389,0.00062177559933242,-0.00062152950953408,0.00062076250042718,-0.00065037920577229,0.00064993979511829,-0.00065016554551496,0.00065055213827779,-0.00065035445500623,0.00064975021034661,-0.00065052226796113,0.00065074401760889,-0.00062386623772005,0.00062246130586049,-0.00062567582868298,0.00062669728579906,-0.00062173578690358,0.00062227718386831,-0.0006193844412784,0.0006194433357581,-0.00062307028010195,0.00062183042795089,8.8364087496902e-07,3.3146557280804e-06,-0.00053072617942385,0.00053083865676987,7.2495491208739e-07,-5.1473315378964e-07,-0.00054315474193581,0.00054356352556125,-0.00054787277923296,0.00053827846505567,-0.00054874048928102,0.00054703480553453,-0.00054659005763682,0.00056604966818024,-0.00054194364975414,0.00054477985832324,-0.00054665837446649,0.00053949151666358,-0.00054752811459379,0.00054824987133121,-0.00055729404473918,0.00055782571347912,-0.00055770684748602,0.00055741204932583,-0.00055727542552348,0.00055636802528479,-0.00055768910220057,0.00055595522643279,-0.00054620402500024,0.00055245001146311,-0.00054377195401244,0.00054509928749393,-0.00054335991048633,0.00054551360302224,-0.00054579002663021,0.00055286235512611,-0.00054780554735702,0.00056483775723024,0.76377140340812,122718,2924,0.0019638340380595,0.0026580663306914,0.002209153908646,18.603327087563,6.4026616700501e-05,6.4026616700501e-05,6.4026616700501e-05,3283089.2157965,0.006854479818045
21391759,0.49854164081733,0.007556899921717,0.0022671476620512,0.0028204617198924,0.0024692905397735,-0.0005073437907969,0.00050557549562893,-3.7635219998725e-06,-1.5847855343499e-06,-5.0449362411877e-07,-1.9463103547766e-07,-0.00032841124964732,0.00032160523207828,-0.00053132304048237,0.00052976723111273,-0.00053022271147383,0.00053506627729766,-0.00033233976720761,0.00032113156131979,-0.00032870973654629,0.00032130306631227,-0.0005316215428306,0.00052946122515179,-0.00053052124276889,0.00053476026271105,-0.00057187720485267,0.00056972391508913,-0.00057083636985464,0.00057204948681087,-0.00057177638573422,0.00056982841618604,-0.00057073552856278,0.00057215397995775,-0.00049764149515951,0.00049051775416361,-0.00049449188083764,0.00048890102261835,-0.00049774300094659,0.00049041473976272,-0.00049459343680944,0.00048879806097141,-0.0003320413389959,0.00032143382882497,8.0499396911637e-08,-2.2205971861949e-07,-8.5251979933182e-07,7.1558571849073e-07,-0.00070857429505777,0.00070843690989072,-0.000689067914386,0.00069056873262128,-0.00068747382418485,0.00068710722994434,-0.00068676196018082,0.00068580150188775,-0.00072261433452634,0.00072205714632501,-0.0007223379119262,0.00072282613852544,-0.00072257935565924,0.00072181937545878,-0.00072278085419646,0.00072306627481524,-0.0006908138026367,0.00068904031071916,-0.00069304398226509,0.00069434153319633,-0.00068706903476383,0.00068774768517941,-0.00068414846234345,0.00068423328426158,-0.00068984661141111,0.00068827630280857,1.1259470346426e-06,4.0661737294893e-06,-0.00057415627257839,0.00057427806243779,9.0657917697539e-07,-6.626251643679e-07,-0.00058762361663372,0.0005881659408886,-0.00059440729482664,0.00058258012001211,-0.00059543732137352,0.0005932956201328,-0.0005918631488221,0.00061580344952488,-0.00058609057257462,0.00058970560975378,-0.00059287005761692,0.00058411555708076,-0.0005939026628772,0.00059483360693471,-0.00060644391835526,0.00060712261581682,-0.00060696646756992,0.0006065990332495,-0.00060645612316684,0.00060531115123499,-0.00060697976655554,0.00060478864934308,-0.00059350338337626,0.00060125440488247,-0.00059038667397597,0.00059207295702927,-0.0005898651010511,0.00059259738640298,-0.00059297933957935,0.00060177633989651,-0.00059340177616914,0.00061426940778257,0.6908403174145,122718,2924,0.0021082548411778,0.0029476145885011,0.0023897232167694,15.312519376887,3.7700155015098e-05,3.7700155015098e-05,3.7700155015098e-05,3455679.0948095,0.0074734346879068
22391759,0.54583133837392,0.0082413769626054,0.0024517274962846,0.0031080043303186,0.0026816451360022,-0.0005464354586686,0.00054431387671831,-4.4299925057724e-06,-1.8604039795802e-06,-5.9923385447029e-07,-2.4771383548658e-07,-0.00034639491139247,0.00033854733395157,-0.00057531159168638,0.00057341775534722,-0.00057399654849974,0.00057952217152512,-0.00035106190763614,0.00033805761147176,-0.00034673331817496,0.00033820474028264,-0.00057565014856931,0.0005730706252738,-0.00057433511925751,0.00057917500634965,-0.00061900127488723,0.00061639766642173,-0.0006177715869676,0.00061913810166474,-0.00061888680608695,0.00061651624568866,-0.00061765709874242,0.00061925667914913,-0.00053401697850878,0.00052558564869687,-0.00053030122394865,0.00052372306354671,-0.00053413209191903,0.00052546882728578,-0.00053041638622365,0.00052360629247515,-0.00035072354171524,0.00033840030161605,8.7690033629768e-08,-2.5511692068052e-07,-1.0216850725998e-06,8.5956390497056e-07,-0.00077883940396853,0.0007786767828012,-0.00075627320801816,0.00075806913259892,-0.00075262420156622,0.00075216683843508,-0.00075173249754465,0.00075060243112637,-0.00079623623608287,0.00079556316953066,-0.00079589673032578,0.00079647780101076,-0.00079618131259636,0.00079527858417864,-0.00079642299150424,0.00079677438066215,-0.00075834200036969,0.00075622323144411,-0.00076099807314304,0.00076256367481812,-0.00075213860555719,0.0007529351655198,-0.0007487808117523,0.00074890472210724,-0.00075724098906399,0.00075535242612732,1.3272984365038e-06,4.7333413075076e-06,-0.00062048394128663,0.00062059714674973,1.0677091658148e-06,-8.1506728017311e-07,-0.00063594529425978,0.0006365582136348,-0.00064456213937382,0.00063073619650871,-0.00064575966023351,0.00064319439151803,-0.00064073850315919,0.00066849960951631,-0.00063410578045573,0.00063840547369326,-0.00064271769442161,0.00063257841446113,-0.00064391822365604,0.0006450395794104,-0.00065731765392629,0.00065811835600686,-0.00065794467525131,0.00065749021972751,-0.00065733075697634,0.00065597854300246,-0.00065795903564168,0.00065535164543039,-0.00064291916654776,0.00065205953546995,-0.00063926256967032,0.00064123362384147,-0.00063863671062978,0.00064186276627091,-0.00064229044818084,0.00065268578777673,-0.00064258456162424,0.00066665895838763,0.69163756941875,122718,2924,0.0022701056784568,0.003239387293467,0.00258226552893,14.81100183063,3.3688014645041e-05,3.3688014645041e-05,3.3688014645041e-05,3649110.6636259,0.008124651375258
23391759,0.5940463335967,0.0089080363347901,0.0026298746370249,0.0033914579431683,0.0028867037545969,-0.00058501971089617,0.00058246845594142,-5.2435113694279e-06,-2.2184605863363e-06,-7.1814483920639e-07,-3.0254552970808e-07,-0.00035799911736916,0.00034870949062128,-0.0006182865082557,0.00061601075449436,-0.00061670841823495,0.00062314566886056,-0.0003635844186542,0.00034832234158882,-0.00035839919045828,0.00034830466504982,-0.00061868684396975,0.00061560044344647,-0.00061710875599256,0.00062273529733472,-0.00066751005722846,0.000664368735647,-0.0006660521936006,0.00066759668783348,-0.00066737469975099,0.00066450891083474,-0.0006659168182788,0.00066773686729939,-0.00056966690996719,0.00055966279465301,-0.00056527100819119,0.0005574889618193,-0.00056980299887855,0.00055952473389374,-0.00056540714781057,0.00055735095288618,-0.00036318437670241,0.0003487272655026,1.0315169139049e-07,-3.0193445953616e-07,-1.2085378706274e-06,1.0159989299029e-06,-0.00085199370549168,0.00085180059189861,-0.00082583895890615,0.00082796168496915,-0.00082114941151051,0.00082060752631846,-0.00082006163739513,0.00081872483993927,-0.00087246590058763,0.00087166911864751,-0.00087205922003832,0.00087274538844013,-0.00087239705704677,0.00087132892195962,-0.00087267300156389,0.00087308778724134,-0.00082828032283077,0.00082577416562957,-0.00083140166375362,0.00083325224061357,-0.00082058216210972,0.00082152294762327,-0.00081662125251192,0.00081676720491746,-0.0008269999783963,0.00082476580947181,1.5808194658639e-06,5.5121532978912e-06,-0.00066622229157033,0.00066635796028533,1.2572617557983e-06,-9.6934232409097e-07,-0.00068296781609595,0.00068372385883993,-0.00069394312509794,0.00067779667000436,-0.00069531022530678,0.00069229265337,-0.0006886290259288,0.00072112118529065,-0.00068079234494269,0.00068590846162483,-0.00069176183821395,0.00067997525499384,-0.00069313249141193,0.00069447473869048,-0.00070877874496777,0.00070973416978624,-0.00070952027963642,0.00070899134734323,-0.00070882373457657,0.00070723207814581,-0.00070956675823175,0.00070649071924477,-0.0006924940788785,0.00070322115956416,-0.00068810277838731,0.00069044715050452,-0.00068736263256869,0.00069119117171915,-0.0006917505378264,0.00070396174332253,-0.00069081225653595,0.00071894442948658,0.66282300645257,122718,2924,0.0024296849501601,0.0035430457142227,0.0027723906105849,15.635021878728,4.0280175029827e-05,4.0280175029827e-05,4.0280175029827e-05,3749175.1025921,0.0087835551030587
24391759,0.64671396778266,0.0096687446925092,0.0028328443110194,0.0037167438655107,0.003119156515979,-0.000631717475006,0.00062865826733351,-6.1947516660095e-06,-2.6400814286521e-06,-8.5660766745947e-07,-3.6124031924073e-07,-0.0003755128562857,0.00036460209248075,-0.00067097834284891,0.00066825601277007,-0.00066908985492126,0.00067657243252964,-0.00038218546048712,0.00036430319463346,-0.00037598966517812,0.00036411981807254,-0.00067145556913178,0.00066776705171966,-0.00066956706942819,0.00067608337929007,-0.00072467387522235,0.00072089579871342,-0.00072295025746925,0.00072469119713753,-0.00072451252932735,0.00072106285958738,-0.00072278889540046,0.00072485826995174,-0.00061336852065585,0.00060151917630039,-0.00060818059977447,0.00059896410890216,-0.00061353071011887,0.0006013546827562,-0.00060834284270154,0.00059879966990383,-0.00038170867239907,0.000364785572112,1.220649306666e-07,-3.6048179886321e-07,-1.4324838652647e-06,1.2015000101323e-06,-0.00093816721119492,0.00093793555568309,-0.00090834383948525,0.00091085527588861,-0.00090203514802369,0.00090139335120109,-0.0009007142184875,0.00089912550893208,-0.0009617665034508,0.00096082109733467,-0.00096127810779942,0.00096208854431287,-0.00096168022721655,0.00096041159490645,-0.00096199697569752,0.00096248414823268,-0.00091123278804927,0.00090826134825349,-0.00091493618680371,0.00091712345345036,-0.00090137039490521,0.00090248407376398,-0.00089671949236441,0.00089688637324281,-0.00090974383691744,0.00090709634309269,1.8758623650286e-06,6.4312907250731e-06,-0.00072034125330077,0.00072050186565468,1.4810284178695e-06,-1.1557661279527e-06,-0.00073950725036564,0.00074042156825239,-0.00075313079669118,0.00073424568371886,-0.00075470319408497,0.00075114676143937,-0.00074614486604329,0.00078415652258754,-0.00073693103797221,0.00074300868074876,-0.00075054765025628,0.00073682554201561,-0.00075212428301986,0.00075373078178205,-0.00076883864885061,0.00076997677494972,-0.00076971678637587,0.00076909713142144,-0.00076891559664906,0.00076704418976089,-0.00076979551483504,0.00076616629185457,-0.00075147394763068,0.00076410157807127,-0.00074623154206489,0.0007490061197927,-0.00074535508386769,0.000749887205554,-0.00075059341735092,0.00076497853384279,-0.00074873036979882,0.00078157882083231,0.69344629843763,122718,2924,0.0026228139681377,0.0039006153930514,0.002997304863063,17.85840464196,5.8067237135683e-05,5.8067237135683e-05,5.8067237135683e-05,3856701.572647,0.0095663037322763
25391759,0.70123665100122,0.010532977063534,0.0030625249377587,0.0040893729047442,0.0033810792210315,-0.00068178999139459,0.00067805368484132,-7.488219231706e-06,-3.2244510096055e-06,-1.040023116094e-06,-4.1210868645443e-07,-0.00038611501739252,0.00037284821455427,-0.00072806627272821,0.00072480051203405,-0.00072574759608924,0.00073477732960027,-0.00039432312622567,0.00037278923875538,-0.00038671954896901,0.00037223724719915,-0.00072867136808017,0.00072418094936807,-0.0007263526637356,0.00073415763508609,-0.00078799729533106,0.00078336855399892,-0.00078591063579849,0.00078787994672766,-0.00078779285045099,0.00078358021696711,-0.00078570617625223,0.00078809163751508,-0.00066069183694265,0.00064636199243781,-0.00065442535815908,0.00064324168904703,-0.00066089742985329,0.00064615358793903,-0.00065463101109437,0.00064303334538972,-0.00039371860995654,0.00037340032370296,1.5881579642571e-07,-4.5269100101238e-07,-1.7187330007172e-06,1.4342274657713e-06,-0.0010372858170461,0.0010370004570601,-0.001004052384206,0.0010070621001572,-0.00099680547697082,0.00099606232776557,-0.00099519479796316,0.00099325141183871,-0.0010623026755598,0.0010611744851951,-0.0010617139455351,0.0010626874387092,-0.0010622070726985,0.0010606691926586,-0.0010625540946068,0.0010631178454082,-0.0010075361191264,0.0010039598281072,-0.0010120280112358,0.001014626953601,-0.0009960272506005,0.00099738528793377,-0.00099033718698915,0.00099049516438998,-0.00100573454492,0.0010025687081988,2.2954844142229e-06,7.6521454299785e-06,-0.00077807799485289,0.0007783098818176,1.7812902690172e-06,-1.375593452959e-06,-0.00080018291157547,0.00080139220377381,-0.00081710100818135,0.00079456263071001,-0.00081890655123391,0.00081469008467939,-0.00080838996536494,0.00085405514348183,-0.00079709874433522,0.00080448992014378,-0.00081400830097321,0.00079765124706114,-0.00081581913224883,0.00081778387813734,-0.00083395962438151,0.00083536134092767,-0.00083501088695997,0.00083430815993591,-0.00083413092514646,0.00083188778429465,-0.00083518443489323,0.00083083680082147,-0.00081684776084178,0.00083198636075757,-0.00081032055456755,0.00081372445711155,-0.00080927137531898,0.00081477944221478,-0.00081579344280535,0.00083303612466252,-0.00081148574376118,0.00085096920008298,0.76207065498803,122718,2924,0.0028296281458128,0.0043116953029742,0.0032373018476398,19.840271748909,7.3922173991269e-05,7.3922173991269e-05,7.3922173991269e-05,3897022.8702628,0.010432803861583
26391759,0.75119065823422,0.011388049092005,0.0032904636223796,0.0044608668234205,0.0036367186462045,-0.00072678467656535,0.0007222859908581,-8.9882776849456e-06,-3.8983079304962e-06,-1.2468787512514e-06,-4.4885967397034e-07,-0.00038795992805633,0.00037181710778224,-0.0007798462800018,0.00077600818403454,-0.00077701427580438,0.00078799259381771,-0.00039801654367722,0.00037220885155359,-0.00038872851472441,0.00037104106870324,-0.00078061556790216,0.00077522109040456,-0.00077778351432439,0.0007872053165315,-0.00084747393336057,0.00084187553682528,-0.00084496158950983,0.00084716629029342,-0.00084721427649619,0.0008421443963738,-0.00084470191897997,0.00084743519204158,-0.00070312556338723,0.00068593565067234,-0.00069559657821633,0.00068213048030093,-0.00070338688451733,0.00068567091796296,-0.00069585797348623,0.00068186581881984,-0.00039724796798734,0.00037298503690822,2.0864023719526e-07,-5.6835759684138e-07,-2.03801890675e-06,1.690143924334e-06,-0.0011348164989942,0.0011344675202954,-0.0010980964548039,0.0011016619993359,-0.0010908823642869,0.0010900448560968,-0.0010889247608099,0.0010865617983975,-0.0011603088477978,0.0011589816431353,-0.0011596087682514,0.0011607665045989,-0.0011602159672671,0.0011583680925503,-0.0011605676214236,0.0011612046018385,-0.0011022411344496,0.0010979828665597,-0.0011075470374453,0.0011105906902649,-0.0010899873319483,0.0010916340746489,-0.0010829762084505,0.001083097773246,-0.001100075605688,0.0010963387863357,2.8006852049054e-06,9.04632315589e-06,-0.00082888732220649,0.00082922725585492,2.1279036865649e-06,-1.6056792476965e-06,-0.00085299859925509,0.00085461768239945,-0.00087446650777927,0.000847814286563,-0.00087650175022164,0.00087157183859545,-0.00086317072815214,0.00091764271951379,-0.00084935127626956,0.00085828175134312,-0.00087080875994321,0.00085146700518231,-0.00087285059438959,0.00087523097944586,-0.00089330270632276,0.00089501863024854,-0.00089454589587221,0.00089377299675108,-0.00089361456566502,0.00089093318709603,-0.00089486058025481,0.00088969031079824,-0.00087630074280696,0.00089433366091024,-0.00086819809523143,0.00087237316401233,-0.00086695744949446,0.00087362102368938,-0.0008750536502629,0.00089557496186302,-0.00086683248236023,0.00091399331696283,0.82335182229769,122718,2924,0.0030151669981304,0.0047159681221852,0.0034485672322684,20.413395188853,7.8507161510824e-05,7.8507161510824e-05,7.8507161510824e-05,3883693.9331112,0.011242604456239
27391759,0.79896744705614,0.012126899592332,0.003489828824908,0.0047833212525264,0.0038537495148971,-0.00076624726192988,0.0007610109059863,-1.048195231317e-05,-4.5570241872339e-06,-1.4627734587814e-06,-5.0028983987932e-07,-0.00038833866085348,0.00036919650471221,-0.00082433630364057,0.00081992286626267,-0.00082098079691293,0.0008340099287913,-0.00040026880278709,0.00037022801475939,-0.00038926597221605,0.00036826098518491,-0.0008252645468351,0.00081897383837029,-0.0008219089607832,0.00083306065090489,-0.00090141996992558,0.00089485128155121,-0.00089847994786978,0.00090096813874821,-0.00090110694110374,0.00089517546268571,-0.00089816690627411,0.00090129237742553,-0.00073891905247424,0.00071888145319499,-0.00073012660702812,0.00071446851193608,-0.00073923428696565,0.00071856226751059,-0.00073044193622852,0.00071414941452451,-0.00039934150096214,0.00037116371316091,2.5482999873896e-07,-6.8195319958263e-07,-2.3546835666038e-06,1.9417703125333e-06,-0.0012237049205588,0.0012232906923994,-0.0011813680494895,0.0011854790628074,-0.0011755204020427,0.0011745836645948,-0.0011731909814875,0.001170414799898,-0.0012520063921514,0.0012504788921076,-0.0012511921984935,0.0012525282966842,-0.0012519207629258,0.0012497655064396,-0.0012522699996311,0.0012529782232139,-0.0011861192843463,0.0011811860548858,-0.0011919537179959,0.0011954355990881,-0.0011745140651193,0.0011764399707013,-0.0011661295360079,0.0011662163909497,-0.0011836361814277,0.0011793315027805,3.3080039920776e-06,1.0428710976589e-05,-0.00087098868719406,0.00087143872752745,2.475138774372e-06,-1.8285085354728e-06,-0.00089437517707829,0.00089641145830685,-0.00092242671757652,0.00089187044227732,-0.00092467966812888,0.00091904048031046,-0.00090646631115197,0.00096933426627319,-0.0008901711592362,0.00090063521892356,-0.00091821047275584,0.00089608071134952,-0.00092047123453562,0.00092325832330243,-0.000945154746013,0.00094718057266065,-0.00094658769975546,0.00094574473314502,-0.00094558130445024,0.0009424481053217,-0.00094701762094404,0.00094101554087308,-0.00092464321537893,0.00094552250442143,-0.0009150457543651,0.00091999648333469,-0.00091361582632279,0.00092143495305097,-0.00092320560331336,0.00094695314227416,-0.00091068742834893,0.00096512792332622,0.74366212196709,122718,2924,0.0031777517883303,0.0050842371036762,0.003623655219296,22.218671596212,9.2949372769696e-05,9.2949372769696e-05,9.2949372769696e-05,3815308.1607309,0.011956778325605
28391759,0.84141560176143,0.012873989268444,0.0036939351444482,0.0051071687759146,0.0040728853480807,-0.00080775631859324,0.00080184306457937,-1.1787234311162e-05,-5.1408713030559e-06,-1.6514206770563e-06,-5.5505459630795e-07,-0.00040139822580006,0.00037997167822447,-0.00087332354704712,0.00086836875298934,-0.00086951250448472,0.00088415189787671,-0.00041493467047846,0.00038133680896575,-0.00040245454582799,0.00037890636517427,-0.00087438109309078,0.00086728783586377,-0.00087056993561364,0.00088307066847782,-0.00095340849756027,0.00094593747850021,-0.00095010107085167,0.00095280644493912,-0.00095305179535776,0.00094630675937934,-0.00094974435824266,0.00095317579766048,-0.00077748740988989,0.00075491476268716,-0.0007676088044669,0.00074994387339029,-0.00077784653519495,0.00075455125612513,-0.00076796804616485,0.00074958046942149,-0.0004138783535828,0.00038240233011649,2.8559954212677e-07,-7.807581549858e-07,-2.6472072559944e-06,2.1682888873397e-06,-0.0013095749711668,0.0013090945802841,-0.0012625166469188,0.0012671138467333,-0.0012565274931706,0.0012554773463311,-0.001253814715219,0.0012506707130414,-0.0013408483120993,0.001339125818535,-0.0013399241446943,0.0013414110515761,-0.0013407472662415,0.0013383103261209,-0.0013411007024262,0.0013418730164996,-0.0012678186509401,0.0012622677754564,-0.0012741891917639,0.0012780702841267,-0.0012554102259373,0.0012575682798812,-0.0012459222024182,0.001245986923572,-0.0012650836951631,0.001260248205863,3.731268730298e-06,1.166424094058e-05,-0.00091468176329966,0.00091521954197057,2.7799567247479e-06,-2.0446073748585e-06,-0.00094182024775398,0.00094415692125285,-0.00097386925473711,0.00093990941416393,-0.00097635459027693,0.0009700470225663,-0.00095528010927427,0.0010251080035032,-0.00093710755956328,0.000948892091729,-0.00096914265183857,0.00094462911078688,-0.00097163685401451,0.00097477528046271,-0.00099518025901983,0.00099745877697514,-0.00099678665655539,0.0009958492357165,-0.00099565362192605,0.00099212755795342,-0.00099726381082188,0.0009905217023095,-0.00097426666220254,0.00099787544339332,-0.00096347223270257,0.00096905604273924,-0.00096186930502047,0.00097066856331406,-0.00097265503715427,0.00099947909188052,-0.00096001228485192,0.0010203927213604,0.84556057744222,122718,2924,0.0033489010888318,0.0054398698388458,0.0038052672853437,23.417035582701,0.00010253628466161,0.00010253628466161,0.00010253628466161,3857578.1052803,0.01267393506711
29391759,0.87811215777802,0.013364910820221,0.0038289672694132,0.0053217323576976,0.0042142111931106,-0.00082963119423902,0.00082300889949954,-1.3321129277966e-05,-5.8036458368244e-06,-1.8913177820758e-06,-6.2190570228784e-07,-0.00038462120219581,0.00035956548756995,-0.00089702564544725,0.00089148300029647,-0.00089265759957308,0.00090967766146001,-0.00040015330642151,0.0003620673450718,-0.00038584516944479,0.00035833246563047,-0.00089825096572615,0.00089023198511283,-0.0008938827783673,0.0009084262764678,-0.00098964561583616,0.00098122829975076,-0.00098588529861258,0.0009889995697568,-0.00098923270018193,0.00098165567892077,-0.00098547237157041,0.00098942703196316,-0.00079609446753347,0.00077064084597765,-0.00078489560544833,0.00076516314181215,-0.0007965104560159,0.00077022003269958,-0.00078531174070346,0.000764742464325,-0.00039892936570306,0.00036330063523254,3.4037038695402e-07,-8.9459936183702e-07,-2.9329188428953e-06,2.3970851751875e-06,-0.001373573365854,0.0013730358885758,-0.001320429886312,0.0013255308303409,-0.0013186673717899,0.001317553278628,-0.0013156433289873,0.0013121037552377,-0.0014071436278164,0.0014052498068693,-0.001406116048008,0.0014077744109962,-0.0014070813886989,0.0014043600215332,-0.0014073975439273,0.0014082281687594,-0.0013262769371058,0.001320108976767,-0.0013329918382322,0.001337263685538,-0.0013174703395795,0.0013199068375394,-0.0013064383333137,0.0013064500242074,-0.0013232217092227,0.0013178819614444,4.2906509604423e-06,1.3007062796053e-05,-0.00093392287112611,0.00093461836787574,3.1262544819466e-06,-2.2149066387456e-06,-0.00095608420898595,0.00095899810353087,-0.00099705059312329,0.00095930291081729,-0.00099968985252512,0.00099278899838681,-0.00097188311944605,0.0010503837700112,-0.00095086671669312,0.00096424018628119,-0.0009918180011453,0.0009645278909461,-0.00099446707737991,0.00099802340872857,-0.0010256115488241,0.0010282419476981,-0.001027389923854,0.0010264600127253,-0.0010262308590227,0.0010222509162799,-0.0010280134979182,0.0010204731185993,-0.00099858594119681,0.0010247111268794,-0.00098620881540691,0.00099267916659154,-0.00098443433314545,0.0009944644158932,-0.00099680167726202,0.0010264863630707,-0.00097712211642815,0.0010451636962313,0.64299206939106,122718,2924,0.0034384900680835,0.0057047509492987,0.0038855442371777,24.738669946701,0.00011310935957361,0.00011310935957361,0.00011310935957361,3642965.9803436,0.013114338871813
30391759,0.90878126575866,0.013720891385169,0.0039292291456434,0.0054751824400636,0.0043164797994618,-0.00084981395053455,0.00084291323081891,-1.380843310732e-05,-5.9916063457733e-06,-1.9798160299969e-06,-7.0827660395628e-07,-0.00040279710891824,0.00037743737013371,-0.00092195161197119,0.00091609245386826,-0.00091741253720108,0.00093472100605726,-0.00041883812366152,0.00037975447709282,-0.00040402271964595,0.00037620234794016,-0.00092317905553495,0.0009148391199158,-0.00091863980155441,0.00093346726144038,-0.0010135953896279,0.0010047297550464,-0.001009707537228,0.0010129296372873,-0.0010131814765247,0.0010051580767701,-0.0010092936160975,0.0010133580501972,-0.00081211901555299,0.00078561498369106,-0.00080053872199226,0.00078009255538951,-0.00081253573433518,0.00078519345213592,-0.00080095560470877,0.00077967116319579,-0.00041761252269415,0.00038098978064084,3.2008893149242e-07,-9.1580491687163e-07,-3.0689123102621e-06,2.4917413857346e-06,-0.0014146392439577,0.0014140605233733,-0.0013549040671615,0.0013601901010295,-0.001352838715539,0.001351606557666,-0.0013495853020927,0.0013459265744618,-0.0014560717315808,0.0014540602269839,-0.0014549805033363,0.0014566749439449,-0.0014559703872777,0.0014531311266702,-0.0014563190936724,0.001457185572583,-0.0013609008922834,0.0013544653699573,-0.0013673789976852,0.0013718353548401,-0.0013515787741852,0.0013540508335475,-0.0013404299742397,0.0013404762071093,-0.0013578809783199,0.0013522741830932,4.4077440324943e-06,1.353556694368e-05,-0.00095454801687378,0.00095524433527091,3.2493661240423e-06,-2.3236708020869e-06,-0.00098131284636128,0.00098420114488134,-0.0010233819365679,0.00098469423747738,-0.0010261920304664,0.0010189343249268,-0.00099688169961506,0.0010767406859753,-0.00097586905742266,0.00098967040611496,-0.0010179222726686,0.00099014580412092,-0.0010207423629489,0.0010243954848198,-0.0010482043350106,0.001050877265033,-0.0010500600760817,0.0010490182055757,-0.0010486794113841,0.0010445247695982,-0.0010505394195126,0.0010426698475099,-0.0010185679069013,0.0010460778784411,-0.0010061078322993,0.0010127312451877,-0.0010042562096923,0.0010145936646378,-0.0010167064284153,0.0010479302161848,-0.0010023476457581,0.0010712941386812,0.55654009761524,122718,2924,0.0035217449528834,0.0058747368910783,0.0039711699223414,26.078675534381,0.00012382940427505,0.00012382940427505,0.00012382940427505,3726686.6682559,0.013457710288052
31391759,0.93460453246934,0.014093287347903,0.0040330710726071,0.0056353578604723,0.0044248584148235,-0.00087199327737495,0.00086460380495009,-1.473576749392e-05,-6.4469792135791e-06,-2.1374930169455e-06,-7.7493950277442e-07,-0.0004059625360699,0.00037857622200192,-0.00094789328647344,0.00094162131758049,-0.00094303564517593,0.00096156111860294,-0.00042311930908954,0.00038145939617407,-0.00040727631272532,0.00037725298813342,-0.00094920900443985,0.00094027855470161,-0.00094435117533496,0.00096021791712843,-0.0010422583500883,0.0010327607440458,-0.0010381104964709,0.0010415357083524,-0.0010418145857406,0.0010332196493203,-0.0010376667213114,0.0010419947123688,-0.0008328496906714,0.0008045564568026,-0.00082051673987843,0.00079867853587153,-0.00083329638221647,0.00080410478035828,-0.00082096361123038,0.00079822701479852,-0.00042180556227714,0.00038278294905037,3.4288891979296e-07,-9.8163418229232e-07,-3.240640589058e-06,2.6214566349804e-06,-0.001462427752752,0.0014618069566257,-0.001399387457523,0.0014049565676702,-0.0013990107650413,0.0013977224656157,-0.0013955369412381,0.0013916480051086,-0.0015052934943961,0.0015031695120371,-0.0015041357861215,0.0015059185565136,-0.0015051914701251,0.0015021804298008,-0.0015055228071675,0.0015064182877678,-0.001405711370646,0.0013989090041904,-0.0014125499156548,0.0014172300252607,-0.0013976960234337,0.00140031253879,-0.0013857135556922,0.0013857302781914,-0.0014025200487735,0.001396605627315,4.7142286460174e-06,1.4339933482982e-05,-0.00097534816773578,0.00097615100488723,3.4484117065139e-06,-2.427433349287e-06,-0.0010036907744222,0.0010068743499935,-0.0010487748838551,0.001007908940194,-0.0010517136322854,0.0010440850851516,-0.0010204578391945,0.0011052316639254,-0.0009979510290308,0.0010126406271655,-0.0010430186478225,0.001013656662547,-0.00104596784601,0.0010498428067885,-0.001073217592991,0.0010760718431909,-0.0010751741701207,0.0010741118205888,-0.0010737260405073,0.001069333442,-0.0010756870976368,0.0010673777567066,-0.0010431044679964,0.0010723023755971,-0.001029787313976,0.0010368898011259,-0.0010278350721854,0.0010388533301091,-0.001041141871555,0.0010742552906572,-0.0010262207743766,0.0010994891908589,0.69215549466537,122718,2924,0.0036129363910388,0.0060724745602412,0.0040577586016579,28.365078060352,0.00014212062448281,0.00014212062448281,0.00014212062448281,3661416.7675538,0.013838384612094
32391759,0.95408336938734,0.014415581361868,0.0041235284385376,0.0057734380634382,0.0045186148598923,-0.00088469371437502,0.00087662698751751,-1.630863753577e-05,-7.0924865036662e-06,-2.3730869234407e-06,-7.9860354760785e-07,-0.0003789493500795,0.00034738459826964,-0.00096132382215327,0.00095449658242427,-0.00095586826542397,0.00097716002443857,-0.00039830332883678,0.00035178051364296,-0.00038046890664318,0.00034585591795937,-0.00096284508745887,0.00095294573799168,-0.0009573893330424,0.00097560869072354,-0.0010671020581329,0.0010567267612721,-0.001062464678386,0.00106635723636,-0.0010665895079207,0.0010572566338351,-0.0010619521132035,0.0010668872165696,-0.00084574940022251,0.00081457587088414,-0.00083200584299581,0.00080812563581921,-0.00084626576158801,0.00081405400574501,-0.00083252241765113,0.00080760397472625,-0.00039678385219473,0.00035330959947049,4.2392038663997e-07,-1.1078141099468e-06,-3.4945416434605e-06,2.8327056011664e-06,-0.0015081808705299,0.0015075171616475,-0.0014439409302997,0.0014499925530274,-0.0014483759225285,0.0014470927512487,-0.0014446757850411,0.0014403838645823,-0.0015469003476977,0.0015446487279301,-0.0015456581147074,0.0015476229829027,-0.0015468795469008,0.0015436015652483,-0.0015471343129387,0.0015480725308137,-0.0014508338470157,0.0014434641236885,-0.0014582952541815,0.0014633190860379,-0.001447015099627,0.0014499459804404,-0.0014332085402722,0.0014331316905683,-0.0014472264914901,0.0014408833156304,5.3579395557003e-06,1.5627837547908e-05,-0.00098097197778488,0.0009819825574414,3.7943315303529e-06,-2.5488193873135e-06,-0.0010017199358078,0.0010057164940962,-0.0010568077595653,0.0010119011916127,-0.0010598164765932,0.0010517525834298,-0.0010215315580271,0.0011159761745406,-0.00099552312956394,0.0010119414297269,-0.0010505938408757,0.0010181061737794,-0.0010536139060637,0.001057968360269,-0.0010896344829389,0.0010929257807011,-0.0010917465194358,0.0010908096818857,-0.0010904140683881,0.0010855709870038,-0.0010925311149088,0.0010834597294453,-0.0010562805069398,0.0010876230122369,-0.0010410618139564,0.0010492181992555,-0.0010389544463868,0.001051338149435,-0.0010541616193862,0.0010897310963621,-0.0010277532397152,0.0011097768431063,0.79325035118638,122718,2924,0.0036645074782397,0.0062616382235408,0.0040816418594842,29.295717419299,0.00014956573935439,0.00014956573935439,0.00014956573935439,3356314.3712584,0.014106767247461
33391759,0.96785610049453,0.01465054499189,0.0041914654734887,0.0058721894360699,0.0045868900823313,-0.00089177560238453,0.00088325443705867,-1.7460429812005e-05,-7.4750059562596e-06,-2.5342774017459e-06,-8.2073774896397e-07,-0.00036211801104506,0.00032779788101474,-0.00096984178698861,0.00096257087012391,-0.00096391960470837,0.00098722419371435,-0.00038315255471921,0.000333159628691,-0.00036377243536324,0.00032613452831163,-0.00097149792329265,0.00096088345009857,-0.00096557550728887,0.00098553622058538,-0.0010824586155625,0.001071426561916,-0.0010774514051733,0.001081737946986,-0.0010819010083494,0.0010720030378154,-0.0010768937833027,0.0010823145395949,-0.00085216946374518,0.00081885877210614,-0.0008373511919377,0.00081209605123894,-0.00085273149342349,0.00081829087138169,-0.00083791347083036,0.00081152839586744,-0.00038149823385385,0.00033482346092172,4.7514136034239e-07,-1.1919486333341e-06,-3.6962495273152e-06,3.0033125308125e-06,-0.0015399260577485,0.0015392310910899,-0.0014737800376744,0.0014802107867976,-0.0014813726623917,0.0014800666706078,-0.0014774713000043,0.0014728899643243,-0.0015773148810921,0.0015749540170498,-0.0015760012430938,0.0015781047733561,-0.0015773568560315,0.0015738785543238,-0.0015775696096888,0.0015785553675287,-0.0014810839866607,0.0014732733252922,-0.0014887062100461,0.0014940184711763,-0.0014799732285308,0.0014831287482068,-0.0014649162940297,0.0014647976399879,-0.0014772155577939,0.0014705219845977,5.8482742391422e-06,1.663407680219e-05,-0.00098115934911345,0.0009822991551188,4.0674660930453e-06,-2.6500198005721e-06,-0.00099693143942388,0.0010015243150009,-0.0010599879092741,0.0010121378657934,-0.0010630747635292,0.0010546600256566,-0.0010186864050934,0.0011198039644982,-0.00099036857769511,0.001008116542493,-0.0010534074009396,0.0010187090844954,-0.0010565062235459,0.0010612425782932,-0.0010978463189497,0.0011014725798013,-0.001100082939461,0.0010992315419173,-0.0010987821798644,0.0010935519321539,-0.0011010241614417,0.0010913160679755,-0.0010611861447182,0.001094254286873,-0.0010446878096984,0.0010536442183669,-0.0010424561534263,0.0010558893617579,-0.0010589421746732,0.0010964867135851,-0.0010252753374115,0.001113238648514,0.81381076464073,122718,2924,0.0036931268382418,0.0063928469799223,0.0040827895777902,29.275781191109,0.00014940624952887,0.00014940624952887,0.00014940624952887,3149048.8381601,0.014270072307151
34391759,0.97842087554499,0.014812645278391,0.004239217202346,0.005939506802625,0.0046339212734204,-0.00090082611771932,0.00089201829587337,-1.8162560289168e-05,-7.7096700937034e-06,-2.6432170901123e-06,-8.5971396703525e-07,-0.00036040424998243,0.00032458885312533,-0.0009806231660866,0.00097304090359742,-0.00097441747493776,0.00099881849444512,-0.00038242688321208,0.00033044444531783,-0.00036212642547463,0.00032285779562049,-0.00098234723004624,0.00097128469532611,-0.00097614127114441,0.00099706168215556,-0.0010960742080716,0.0010846011430169,-0.0010908498422334,0.0010953904635243,-0.0010954939142175,0.0010852011441113,-0.0010902695349446,0.0010959905883006,-0.00085979045461204,0.00082513953234756,-0.0008443384877225,0.00081824436883287,-0.00086037546879463,0.00082454846660108,-0.00084492378009445,0.00081765357539462,-0.00038070482384215,0.00033217603598663,4.953232283197e-07,-1.2394837410616e-06,-3.8313881117676e-06,3.1120719367135e-06,-0.001564960654525,0.0015642392614482,-0.0014960775608339,0.0015027436993579,-0.0015057788455558,0.0015044312234758,-0.0015017329626101,0.0014969767917875,-0.0016035790133299,0.001601133593604,-0.001602212575967,0.0016043939815935,-0.0016036492692733,0.0016000408737351,-0.0016038475991032,0.0016048656648429,-0.0015036092689399,0.0014955107212034,-0.0015111300857026,0.0015166323670593,-0.0015043484575738,0.0015076244884809,-0.0014886837707831,0.0014885525230392,-0.00149963478744,0.0014926985947983,6.1260951862107e-06,1.7282284703898e-05,-0.00098537043178088,0.00098657926614585,4.2397824758434e-06,-2.7230881366173e-06,-0.0010002112503135,0.0010051005936593,-0.0010673347054369,0.001017826686288,-0.0010705022606244,0.0010618239480066,-0.0010228415398494,0.0011275544201741,-0.00099340856729756,0.0010119334781445,-0.0010605139218488,0.0010246378945439,-0.0010636937829428,0.0010686467809088,-0.0011063092068431,0.0011101165176778,-0.0011086275357662,0.0011077936570902,-0.0011072723360745,0.0011017962377598,-0.0011095962021193,0.0010994787174362,-0.001067482263048,0.0011017753535747,-0.0010503618914032,0.0010597627027426,-0.0010480487516298,0.001062089815558,-0.0010651563853377,0.0011040892976623,-0.0010296710361865,0.0011207492761171,0.7296115327816,122718,2924,0.0037301791792119,0.0064963387125147,0.0041004726647693,31.398393345196,0.00016638714676157,0.00016638714676157,0.00016638714676157,3029683.9508322,0.014430592807002
35391759,0.98681418643636,0.014928631355949,0.0042737010433951,0.0059873113266316,0.0046676189859222,-0.00091432020312472,0.00090537775346875,-1.8381967073502e-05,-7.8242508678012e-06,-2.6965518464928e-06,-9.1591084115489e-07,-0.00037498595190789,0.00033895832721885,-0.00099638034656993,0.0009886408780372,-0.00099010237614813,0.0010145848845256,-0.00039721134290899,0.00034481238288366,-0.0003767051599856,0.00033723014194975,-0.00099810172876701,0.00098688737838314,-0.00099182347983855,0.0010128307683515,-0.001110375170941,0.001098694012666,-0.0011051044457601,0.001109709902558,-0.0011097956635022,0.0010992931887946,-0.0011045249213082,0.001110309200908,-0.00087151418188996,0.00083638399674802,-0.00085592328889283,0.00082947514946494,-0.00087209828306615,0.00083579386923314,-0.00085650769239012,0.00082888531044271,-0.00039549226358523,0.00034654113612456,4.8311555118554e-07,-1.2482892915877e-06,-3.8889484319515e-06,3.1486291107046e-06,-0.0015860809405631,0.0015853386060437,-0.001514155633696,0.0015208919456573,-0.001524570965843,0.0015231672858588,-0.0015204346386086,0.001515629486245,-0.0016278560492583,0.0016253572640068,-0.0016264602028935,0.0016286510010105,-0.0016279116186582,0.0016242522648282,-0.0016281225127866,0.0016291523718781,-0.0015217261896495,0.0015135155530635,-0.0015290323542504,0.0015346071083696,-0.001523117415977,0.0015264000595428,-0.0015074713295755,0.0015073538083368,-0.0015177933594058,0.0015107427447214,6.1641375033932e-06,1.7552423356778e-05,-0.00099748490283173,0.00099870953241503,4.2977005446982e-06,-2.7600403748211e-06,-0.0010159931088049,0.0010208483109604,-0.0010826950762671,0.0010328691647846,-0.0010859456186872,0.0010771054687354,-0.001038446708508,0.0011436838123016,-0.0010090979473885,0.0010277740617455,-0.0010757814403238,0.0010397730171848,-0.0010790443352471,0.0010840209855191,-0.0011183637002843,0.0011221768680461,-0.0011207136818381,0.0011198224873124,-0.0011192258594982,0.0011136807531075,-0.0011215813647708,0.0011113316994989,-0.0010795348776977,0.0011145363865138,-0.0010624573180379,0.0010719021276748,-0.0010601126474003,0.0010742607741765,-0.0010771774532782,0.0011168818511815,-0.0010453689512195,0.0011367861086482,0.65593630488581,122718,2924,0.0037859108740874,0.006583704614699,0.0041507880642841,35.851114312918,0.00020200891450334,0.00020200891450334,0.00020200891450334,3014200.8255291,0.014626816491804
36391759,0.99225471844812,0.015007394814153,0.0042970964759302,0.0060196817157837,0.0046906166224389,-0.00092135201774612,0.00091230148278544,-1.8533409175586e-05,-7.9285294560992e-06,-2.738594733974e-06,-9.5789574145755e-07,-0.00038153344975283,0.00034522842059943,-0.0010047524486618,0.00099690339995307,-0.00099843498970311,0.0010229830778175,-0.00040386854809357,0.00035114987932618,-0.00038325277563565,0.00034350012713868,-0.0010064740320216,0.00099514984813717,-0.0010001562814606,0.001021228896443,-0.0011178433156751,0.0011060211006353,-0.0011125414976762,0.0011171811443603,-0.0011172635985433,0.0011066203316955,-0.0011119617674122,0.0011177805024409,-0.00087780197502114,0.00084234796545912,-0.00086212281853895,0.00083540809700432,-0.00087838617175031,0.00084175780227976,-0.00086270731595408,0.00083481821798391,-0.0004021493444019,0.00035287874301126,4.7698808706495e-07,-1.2544234444144e-06,-3.9184739526539e-06,3.1657774691305e-06,-0.0015976902765319,0.0015969356043591,-0.0015241783656868,0.0015309480406098,-0.0015350907318611,0.0015336590396661,-0.0015309099705943,0.0015260770304009,-0.0016409464064638,0.0016384196904927,-0.0016395338797516,0.0016417278226797,-0.0016409896756161,0.0016373025831829,-0.0016412020501721,0.0016422352419397,-0.0015317759809632,0.0015235072348533,-0.0015390649367422,0.0015446731236485,-0.0015336232672083,0.0015369089683234,-0.0015179478391766,0.0015178336191729,-0.0015278559248753,0.001520747113536,6.1879735026005e-06,1.7693449445876e-05,-0.0010040350711955,0.0010052784260191,4.3272978502354e-06,-2.7774425291675e-06,-0.0010247052797626,0.0010295536412258,-0.0010910093020774,0.0010409762570031,-0.0010943049821886,0.0010853805947714,-0.0010471608673241,0.0011528722121631,-0.001017764130359,0.0010365253656032,-0.0010840496681533,0.0010479260507312,-0.0010873576643565,0.0010923420125508,-0.0011246569227021,0.0011284708822869,-0.0011270225905464,0.0011261009099595,-0.0011254660010591,0.0011198944953898,-0.0011278371563044,0.0011175298140211,-0.0010862819716494,0.0011216598384666,-0.0010691885513577,0.0010786640509281,-0.0010668282039828,0.0010810382738569,-0.0010839089373801,0.0011240209451903,-0.0010541290815189,0.0011459285364047,0.68699515304475,122718,2924,0.0038148806888002,0.0066317215447372,0.0041780105732148,37.529917595317,0.00021543934076254,0.00021543934076254,0.00021543934076254,3016291.1651397,0.014732558978258
37391759,0.99546589180018,0.015053415347515,0.0043107624835296,0.0060386005338115,0.0047040523301741,-0.00092272390354768,0.00091350115200398,-1.895568490338e-05,-8.0950992824531e-06,-2.8053859885406e-06,-9.6760845642213e-07,-0.00037269115355586,0.00033508758922695,-0.0010056021963714,0.00099758908803984,-0.00099911993911533,0.0010244979336915,-0.00039563464354038,0.00034155140288955,-0.00037446613239738,0.0003333039301937,-0.0010073792694431,0.00099577960220428,-0.0010008967174547,0.0010226878027787,-0.0011220802763122,0.0011100352510189,-0.0011166397312711,0.001121430462139,-0.0011214819963615,0.0011106535395502,-0.0011160414362629,0.0011220488786612,-0.00087956382640637,0.00084334603994026,-0.00086349185210798,0.00083627242980944,-0.00088016683419185,0.00084273695569878,-0.0008640951733083,0.0008356636493141,-0.00039385980549688,0.00034333566327131,5.0151132452355e-07,-1.2859685073107e-06,-3.9754414768874e-06,3.2162544832117e-06,-0.0016053930624377,0.0016046318342731,-0.0015319934776509,0.0015388806394045,-0.0015443461050597,0.0015429272360106,-0.0015401311265806,0.0015352005017473,-0.0016470809131001,0.0016445307615569,-0.0016456494496944,0.0016478914791778,-0.0016471530745831,0.001643404887394,-0.0016473380782402,0.0016483816778193,-0.0015397352593396,0.0015313361133244,-0.0015472281488386,0.001552916340191,-0.0015428738117057,0.0015462436681292,-0.0015266597939076,0.0015265192714251,-0.0015356923937218,0.0015284906103435,6.3747817722289e-06,1.7992165438019e-05,-0.00100222272763,0.0010035241064238,4.4136149129175e-06,-2.7991445905923e-06,-0.0010190977807337,0.0010242135847824,-0.0010889899621076,0.0010378783585172,-0.0010922884573755,0.0010832876308969,-0.001042512685613,0.0011509034248609,-0.0010120507193885,0.0010312911951905,-0.0010819245798965,0.0010449339182724,-0.0010852355118932,0.0010903549029128,-0.0011260910260809,0.0011300340639611,-0.0011284926373123,0.0011276279948436,-0.0011269919816442,0.0011213027818104,-0.0011293991848244,0.0011189021003647,-0.0010862153419184,0.0011219940967887,-0.0010685684895262,0.0010783565596496,-0.0010661722273815,0.0010807669206281,-0.0010838061882549,0.0011243911076008,-0.0010495869155441,0.0011438540050095,0.68009907945379,122718,2924,0.0038202864712347,0.0066635286554323,0.00417065252057,37.635794683195,0.00021628635746556,0.00021628635746556,0.00021628635746556,2925663.788595,0.014762874495431
38391759,0.9973200449935,0.015081470252869,0.0043191486763548,0.0060500524149195,0.0047122691615952,-0.00092242790997999,0.00091314526812381,-1.9116588943449e-05,-8.1307835613451e-06,-2.8265848713738e-06,-9.7608964387265e-07,-0.00036989548025387,0.00033198185219329,-0.0010056462943206,0.00099755767357704,-0.00099909440878164,0.0010247216340814,-0.00039307812642213,0.00033853667846746,-0.00037168275109477,0.00033018593070174,-0.001007435705702,0.00099573570788141,-0.0010008835125978,0.0010228990069934,-0.0011228099130553,0.0011106683006247,-0.0011173152330373,0.0011221676294181,-0.0011222075051559,0.0011112908622299,-0.0011167128129019,0.0011227903228726,-0.00087906887586368,0.00084254563470678,-0.00086283869458077,0.00083545628660366,-0.00087967605887474,0.00084193234594366,-0.00086344619335291,0.00083484330333711,-0.00039129099545821,0.00034033321106971,5.0529691212174e-07,-1.2944465731547e-06,-4.0045250159579e-06,3.2408275091881e-06,-0.0016084165908217,0.0016076508430164,-0.0015345705059595,0.0015415098652989,-0.0015473804597307,0.0015459511806521,-0.0015431314801183,0.0015381663081738,-0.0016501810505329,0.0016476127212619,-0.0016487383085381,0.0016509978654665,-0.0016502607925852,0.001646486150225,-0.0016504421129704,0.001651494954966,-0.0015423621034296,0.0015339017879515,-0.0015498265752251,0.0015555587428671,-0.0015459025052048,0.0015492975991661,-0.0015295414512354,0.0015294020541237,-0.0015382945761832,0.0015310398202641,6.4472989407297e-06,1.8131413414473e-05,-0.0010007445923437,0.0010020624513547,4.4534034753777e-06,-2.8133691348438e-06,-0.0010172217755146,0.0010224255260654,-0.0010881550610876,0.0010366627920136,-0.0010914637936345,0.0010824148304809,-0.0010408627337892,0.0011500536363807,-0.0010101218747271,0.0010295561138982,-0.0010810367848195,0.001043771196685,-0.0010843580146594,0.0010895349966712,-0.0011256257048548,0.0011296181030982,-0.0011280452998921,0.0011271940265241,-0.0011265413801244,0.0011207929589185,-0.0011289666002914,0.0011183743012991,-0.0010853059030355,0.0011213319408791,-0.0010674982118686,0.0010774059815777,-0.001065084000785,0.0010798343810161,-0.0010828787224457,0.0011237469057746,-0.0010479899254655,0.0011429513805319,0.71704436579938,122718,2924,0.0038189519695371,0.0066760102355118,0.0041645700245437,37.194807562811,0.00021275846050249,0.00021275846050249,0.00021275846050249,2899534.4691908,0.014768019379068
38880000,0.99799694658898,0.015092096551296,0.0043223299326634,0.0060543804149794,0.0047153862036533,-0.00092218960693865,0.00091283792792078,-1.9325344652158e-05,-8.1935977706802e-06,-2.8538326699767e-06,-9.7105124930429e-07,-0.00036460342108355,0.0003260577933907,-0.0010050009616776,0.0009968417275121,-0.00099835947028856,0.0010244443859889,-0.00038812191095584,0.00033288297533386,-0.00036642213146337,0.0003242305666215,-0.001006821724659,0.00099498809398464,-0.0010001799234475,0.0010225900819955,-0.0011240426129942,0.0011118019950106,-0.0011184746779664,0.0011234110718261,-0.0011234297698586,0.0011124353386058,-0.0011178618206835,0.001124044546626,-0.00087908682390526,0.00084219358957779,-0.00086264707544294,0.00083504516596591,-0.00087970462041692,0.00084156960340266,-0.00086326519827601,0.00083442149920182,-0.00038630335317738,0.00033471083510613,5.2015720986758e-07,-1.311224478825e-06,-4.0342099611333e-06,3.26896162158e-06,-0.001611048732397,0.0016102813905018,-0.0015374589228355,0.0015444639569156,-0.0015509287584665,0.0015495097435384,-0.0015466642809305,0.0015416469661363,-0.0016518342609468,0.0016492557887587,-0.0016503828208579,0.0016526707233211,-0.0016519340684513,0.0016481279824746,-0.0016521020095562,0.0016531618855557,-0.0015453291850396,0.0015368001485397,-0.0015528690484829,0.0015586457119081,-0.0015494498959826,0.0015528936245293,-0.001532803768477,0.0015326506268224,-0.001541193909836,0.0015338915813572,6.5504091252341e-06,1.8286582697268e-05,-0.00099862002375932,0.00099996426406268,4.5001894088686e-06,-2.8247357442869e-06,-0.0010127272418053,0.0010180809876839,-0.001085774888421,0.0010337084037936,-0.0010890805564509,0.0010799974466107,-0.0010368665240015,0.0011474388295582,-0.0010055703592311,0.0010252686084862,-0.0010785996781209,0.0010408737469496,-0.0010819179303919,0.0010871746199416,-0.0011253942593795,0.0011294615858648,-0.0011278331995352,0.0011270180639881,-0.0011263670818274,0.0011205479480188,-0.0011288117165457,0.0011181099103551,-0.0010840654251991,0.0011202823201871,-0.0010659643178892,0.0010760452939778,-0.0010635307928413,0.0010784931730525,-0.0010816187892691,0.0011227166087298,-0.0010440507974487,0.0011402796641599,0.74364572121898,122718,2924,0.0038178531094965,0.0066868682886833,0.0041558339459497,37.19361980028,0.00021274895840224,0.00021274895840224,0.00021274895840224,2846225.2876375,0.014769067695903
