time,ASR_ext,ASR_strain,ASR_strain_xx,ASR_strain_yy,ASR_strain_zz,disp_x_101,disp_x_102,disp_x_103,disp_x_104,disp_x_105,disp_x_106,disp_x_p10_neg,disp_x_p10_pos,disp_x_p11_neg,disp_x_p11_pos,disp_x_p12_neg,disp_x_p12_pos,disp_x_p13_neg,disp_x_p13_pos,disp_x_p14_neg,disp_x_p14_pos,disp_x_p15_neg,disp_x_p15_pos,disp_x_p16_neg,disp_x_p16_pos,disp_x_p1_neg,disp_x_p1_pos,disp_x_p2_neg,disp_x_p2_pos,disp_x_p3_neg,disp_x_p3_pos,disp_x_p4_neg,disp_x_p4_pos,disp_x_p5_neg,disp_x_p5_pos,disp_x_p6_neg,disp_x_p6_pos,disp_x_p7_neg,disp_x_p7_pos,disp_x_p8_neg,disp_x_p8_pos,disp_x_p9_neg,disp_x_p9_pos,disp_y_101,disp_y_102,disp_y_103,disp_y_104,disp_y_105,disp_y_106,disp_y_p10_neg,disp_y_p10_pos,disp_y_p11_neg,disp_y_p11_pos,disp_y_p12_neg,disp_y_p12_pos,disp_y_p1_neg,disp_y_p1_pos,disp_y_p2_neg,disp_y_p2_pos,disp_y_p3_neg,disp_y_p3_pos,disp_y_p4_neg,disp_y_p4_pos,disp_y_p5_neg,disp_y_p5_pos,disp_y_p6_neg,disp_y_p6_pos,disp_y_p7_neg,disp_y_p7_pos,disp_y_p8_neg,disp_y_p8_pos,disp_y_p9_neg,disp_y_p9_pos,disp_z_101,disp_z_102,disp_z_103,disp_z_104,disp_z_105,disp_z_106,disp_z_p10_neg,disp_z_p10_pos,disp_z_p11_neg,disp_z_p11_pos,disp_z_p12_neg,disp_z_p12_pos,disp_z_p13_neg,disp_z_p13_pos,disp_z_p14_neg,disp_z_p14_pos,disp_z_p15_neg,disp_z_p15_pos,disp_z_p16_neg,disp_z_p16_pos,disp_z_p1_neg,disp_z_p1_pos,disp_z_p2_neg,disp_z_p2_pos,disp_z_p3_neg,disp_z_p3_pos,disp_z_p4_neg,disp_z_p4_pos,disp_z_p5_neg,disp_z_p5_pos,disp_z_p6_neg,disp_z_p6_pos,disp_z_p7_neg,disp_z_p7_pos,disp_z_p8_neg,disp_z_p8_pos,disp_z_p9_neg,disp_z_p9_pos,humidity,ndof,nelem,strain_xx,strain_yy,strain_zz,temp,thermal_strain_xx,thermal_strain_yy,thermal_strain_zz,vonmises,vstrain
14391759,0,0,0,0,0,0,0,0,0,0,0,0,0,0,0,0,0,0,0,0,0,0,0,0,0,0,0,0,0,0,0,0,0,0,0,0,0,0,0,0,0,0,0,0,0,0,0,0,0,0,0,0,0,0,0,0,0,0,0,0,0,0,0,0,0,0,0,0,0,0,0,0,0,0,0,0,0,0,0,0,0,0,0,0,0,0,0,0,0,0,0,0,0,0,0,0,0,0,0,0,0,0,0,0,0,0,0,0,0,0,0,0,0,0,0,0,0,0,0,0,0,0,0
15391759,0.10043342909389,0.0016894425271842,0.0005631475090614,0.0005631475090614,0.0005631475090614,-0.0001577387998371,0.00015773879950496,-4.0368854259213e-13,3.5152576112929e-13,-3.0359328425709e-13,1.658877153324e-13,-0.00013767552161328,0.00013767552164352,-0.00014379219094333,0.00014379219041153,-0.0001437921920898,0.00014379219206147,-0.0001376755218248,0.00013767551944867,-0.00013767552206472,0.00013767552116751,-0.00014379219140463,0.00014379218995023,-0.00014379219254192,0.00014379219159098,-0.00016654494394155,0.0001665449435772,-0.00016654494427719,0.00016654494441632,-0.0001665449437886,0.00016654494373198,-0.00016654494412861,0.00016654494457548,-0.00016149261596385,0.0001614926154048,-0.00016149261551633,0.00016149261643625,-0.00016149261612358,0.00016149261525273,-0.0001614926156663,0.00016149261627441,-0.0001376755213545,0.00013767551990582,1.5262177133318e-13,-3.138127376848e-13,-3.8280734088454e-13,2.2832119923177e-13,-0.00017215048089188,0.00017215048073669,-0.00016744742270999,0.00016744742331532,-0.0001739111118964,0.00017391111199689,-0.0001739111125858,0.0001739111117669,-0.00017051139917387,0.00017051139898404,-0.00017051139951436,0.00017051139970495,-0.00017051139933326,0.00017051139883554,-0.00017051139967374,0.00017051139955643,-0.00016744742246499,0.00016744742155209,-0.00016744742279654,0.00016744742309014,-0.00017391111159988,0.00017391111209993,-0.00017391111228927,0.00017391111186993,-0.00016744742237843,0.00016744742177726,-4.0515305116122e-13,-1.1603656986832e-12,-0.00015825072270785,0.00015825071878254,-7.1078065378599e-13,-1.2971511707163e-12,-0.00014978081963156,0.00014978081634167,-0.0001531341535313,0.00015313414747514,-0.00015313415307819,0.00015313414752548,-0.00014978082004223,0.00014978081648976,-0.00014978081902573,0.00014978081695212,-0.00015313415294376,0.00015313414806303,-0.00015313415249189,0.0001531341481146,-0.00016517619512103,0.00016517619397403,-0.00016517619531182,0.00016517619378224,-0.00016517619542005,0.00016517619376954,-0.00016517619561145,0.00016517619357838,-0.00015944384084564,0.00015944383864544,-0.00015944384007501,0.0001594438393538,-0.0001594438398771,0.00015944383955405,-0.00015944384064632,0.00015944383884427,-0.00014978082065071,0.00014978081588197,0.76480320321166,132758,2964,0.00065703093041991,0.00071703554103134,0.0006591604949507,27.177566800742,0.00013262053440594,0.00013262053440594,0.00013262053440594,1501917.8632595,0.0020352991409792
16391759,0.18866666398336,0.0031772659519933,0.0010361037091575,0.0011062806856537,0.0010348815571821,-0.00025806377909224,0.00025806377906503,-3.3666048731203e-13,4.1890309250395e-13,-1.120634147749e-13,2.6224670545493e-13,-0.00021113032761064,0.00021113032828653,-0.00022468281191048,0.00022468281204981,-0.00022468281255288,0.00022468281319587,-0.00021113032888357,0.00021113032733621,-0.00021113032796747,0.00021113032789967,-0.00022468281227734,0.00022468281168191,-0.00022468281291036,0.00022468281281861,-0.00028136726918502,0.00028136726891014,-0.00028136726956971,0.00028136726979856,-0.00028136726906361,0.00028136726903367,-0.00028136726945251,0.0002813672699263,-0.00027161583313973,0.00027161583262242,-0.00027161583285558,0.00027161583381795,-0.00027161583326742,0.00027161583250059,-0.00027161583297485,0.00027161583368769,-0.00021113032850354,0.00021113032769989,6.0826303562885e-14,-3.1000887548945e-13,-5.4270644734497e-13,3.0163978396276e-13,-0.00030169401672778,0.00030169401648561,-0.00029075783137706,0.00029075783208686,-0.00030489028900244,0.00030489028883815,-0.00030489028929583,0.00030489028840325,-0.00029824585474604,0.00029824585435206,-0.00029824585617761,0.00029824585633507,-0.00029824585505844,0.00029824585442164,-0.00029824585649,0.00029824585640464,-0.00029075783024256,0.00029075782905259,-0.00029075783161061,0.00029075783207202,-0.00030489028925601,0.00030489028965154,-0.00030489028954937,0.00030489028921663,-0.00029075783000901,0.00029075782906743,-3.0749274968992e-13,-1.0630562449497e-12,-0.00025757647331552,0.00025757647024632,-4.3117594551789e-13,-1.246144328205e-12,-0.00024065032361793,0.00024065032202442,-0.00024742109892733,0.00024742109440769,-0.0002474210984838,0.00024742109446777,-0.0002406503237721,0.00024065032235052,-0.00024065032279498,0.00024065032285272,-0.00024742109812847,0.00024742109520716,-0.00024742109768549,0.00024742109526779,-0.00027628849743177,0.00027628849610367,-0.00027628849770038,0.00027628849583482,-0.00027628849774747,0.00027628849591562,-0.00027628849801654,0.00027628849564723,-0.00026527057183217,0.00026527056932334,-0.00026527057104566,0.00026527057001656,-0.00026527057076995,0.00026527057029453,-0.00026527057155528,0.00026527056960012,-0.00024065032459763,0.0002406503215248,0.78818862354921,132758,2964,0.0010747060402352,0.001256261598666,0.0010726643436726,24.446613037583,0.00011077290430066,0.00011077290430066,0.00011077290430066,2427176.0793436,0.0034094446900339
17391759,0.26725972466951,0.0044381296231407,0.0014212241045223,0.0015987168671698,0.0014181886514486,-0.00033935749877962,0.00033935749893797,-2.9886170821526e-13,4.5698580410326e-13,-2.174770694601e-14,3.0098810649054e-13,-0.00025136853511227,0.00025136853631782,-0.00027956343118905,0.00027956343167862,-0.00027956343127107,0.00027956343226446,-0.00025136853670924,0.00025136853579118,-0.00025136853542389,0.00025136853598587,-0.00027956343150352,0.0002795634313595,-0.00027956343158133,0.00027956343194114,-0.00038113365566967,0.00038113365543054,-0.00038113365570033,0.00038113365596514,-0.0003811336555654,0.0003811336555374,-0.00038113365559877,0.0003811336560747,-0.00036283920141186,0.00036283920090236,-0.00036283920089976,0.00036283920187054,-0.00036283920152142,0.00036283920079638,-0.0003628392010033,0.00036283920175854,-0.00025136853638311,0.00025136853610864,3.4531562731521e-14,-2.8547557671121e-13,-5.9263978312908e-13,3.486521122445e-13,-0.00042014654803525,0.00042014654779069,-0.00040031154292426,0.00040031154370946,-0.00042346219263663,0.00042346219238611,-0.00042346219277554,0.00042346219189757,-0.00041604643872779,0.00041604643828279,-0.0004160464392544,0.00041604643942484,-0.00041604643889499,0.00041604643824104,-0.00041604643942159,0.0004160464393831,-0.00040031154390216,0.00040031154263088,-0.00040031154309017,0.00040031154366109,-0.00042346219262285,0.00042346219299911,-0.00042346219276175,0.00042346219251056,-0.00040031154373624,0.00040031154267927,-3.6966494779842e-14,-7.9281988283797e-13,-0.00033702616848267,0.00033702616701473,8.7387823009051e-14,-8.3053770852546e-13,-0.00030776950773958,0.00030776950747863,-0.00031840038890847,0.00031840038700145,-0.00031840038857037,0.00031840038716706,-0.0003077695075792,0.00030776950767878,-0.00030776950682193,0.00030776950840115,-0.00031840038801111,0.00031840038789842,-0.00031840038767322,0.00031840038806423,-0.00037075908256635,0.00037075908177499,-0.00037075908286957,0.00037075908147236,-0.00037075908283026,0.00037075908153493,-0.00037075908313373,0.00037075908123255,-0.00035142049943569,0.00035142049725541,-0.0003514204986838,0.00035142049798389,-0.00035142049837465,0.0003514204982952,-0.00035142049912556,0.00035142049756576,-0.00030776950849925,0.00030776950675865,0.75883498657478,132758,2964,0.0014130508859038,0.0017490532527324,0.0014033098321713,22.112960602702,9.2103684821617e-05,9.2103684821617e-05,9.2103684821617e-05,3145997.6931609,0.0045758884963008
18391759,0.32379896799944,0.0053087447736701,0.001681871139522,0.0019543778348755,0.0016724957992726,-0.00038823609081795,0.0003882360911694,-2.6160249351751e-13,4.9447426179778e-13,5.0193253395269e-14,3.181508101229e-13,-0.00026865043913106,0.00026865044077798,-0.00030830300164938,0.00030830300243116,-0.00030830300106604,0.00030830300235176,-0.00026865044115768,0.00026865044078607,-0.00026865043939335,0.00026865044050217,-0.00030830300190979,0.0003083030021646,-0.00030830300132529,0.00030830300208405,-0.00044530425837582,0.00044530425819231,-0.00044530425807533,0.00044530425839591,-0.00044530425828964,0.00044530425828127,-0.00044530425799051,0.00044530425848624,-0.00041802884764689,0.00041802884716721,-0.00041802884694671,0.00041802884794779,-0.000418028847737,0.00041802884707784,-0.00041802884703382,0.00041802884785542,-0.00026865044088686,0.0002686504410534,1.453823233757e-14,-2.5210114499042e-13,-7.3702672514829e-13,5.0540188844423e-13,-0.0004989014460668,0.00049890144583495,-0.0004691425058346,0.00046914250690844,-0.00049744613635428,0.000497446135963,-0.00049744613639243,0.00049744613547864,-0.0004977831826555,0.0004977831821017,-0.00049778318256525,0.00049778318283398,-0.00049778318276086,0.00049778318203406,-0.0004977831826706,0.00049778318276635,-0.00046914250758186,0.00046914250604644,-0.00046914250599097,0.00046914250688648,-0.00049744613619415,0.00049744613663235,-0.00049744613623228,0.00049744613614798,-0.00046914250742547,0.00046914250606841,2.1892521915395e-13,-5.3716575171972e-13,-0.00038326215664846,0.00038326215673019,5.4734914650635e-13,-6.7851350717222e-13,-0.00034294743735115,0.00034294743793863,-0.00035836489240303,0.0003583648921262,-0.00035836489217087,0.00035836489239784,-0.00034294743675432,0.00034294743828988,-0.00034294743613918,0.00034294743915464,-0.00035836489120642,0.00035836489332212,-0.00035836489097402,0.00035836489359352,-0.00042954444459161,0.00042954444452751,-0.00042954444499874,0.0004295444441213,-0.00042954444482078,0.00042954444425254,-0.00042954444522798,0.00042954444384639,-0.00040277969443732,0.0004027796925691,-0.00040277969371655,0.00040277969332919,-0.00040277969330549,0.00040277969374221,-0.00040277969402561,0.00040277969298147,-0.00034294743796794,0.00034294743707552,0.7390879677985,132758,2964,0.0016164497401033,0.0020765387585054,0.0015956906364256,17.503609006869,5.5228872054949e-05,5.5228872054949e-05,5.5228872054949e-05,3665529.5823925,0.0053027541328818
19391759,0.38212020341324,0.0062486371819392,0.0019608449495925,0.0023438148287184,0.0019439774036283,-0.00045046709803282,0.00045046709829734,-2.8098916597386e-13,4.7527968641418e-13,1.4711624099394e-14,2.8542296434789e-13,-0.00029713563552762,0.00029713563696184,-0.00035152041192289,0.00035152041255047,-0.00035152041145412,0.00035152041258571,-0.00029713563742552,0.00029713563683696,-0.00029713563579186,0.00029713563668405,-0.00035152041218614,0.00035152041228198,-0.00035152041171609,0.00035152041231597,-0.00052338591850611,0.0005233859183008,-0.00052338591819458,0.00052338591849351,-0.00052338591841853,0.00052338591839061,-0.00052338591810849,0.00052338591858481,-0.00048962082787513,0.00048962082736844,-0.00048962082722595,0.00048962082820045,-0.00048962082796661,0.00048962082727856,-0.00048962082731369,0.00048962082810682,-0.00029713563715219,0.00029713563710572,1.5653257097858e-14,-2.533562573829e-13,-7.2838462334974e-13,4.9621229326094e-13,-0.00059512650994034,0.00059512650970824,-0.00055613064548005,0.00055613064653767,-0.00058970981115271,0.0005897098107698,-0.00058970981124704,0.00058970981033747,-0.000596643020819,0.00059664302027473,-0.00059664302037748,0.00059664302063918,-0.00059664302086237,0.00059664302014236,-0.00059664302042084,0.00059664302050681,-0.00055613064745618,0.00055613064593581,-0.0005561306455841,0.00055613064646162,-0.00058970981091296,0.00058970981134653,-0.00058970981100729,0.0005897098109142,-0.00055613064735212,0.00055613064601188,7.8054745076705e-14,-6.7823920672839e-13,-0.00044222160682674,0.00044222160627154,3.4403713696045e-13,-8.6309996377092e-13,-0.00039517627636079,0.00039517627626739,-0.00041364687223819,0.0004136468711588,-0.00041364687199656,0.00041364687142102,-0.00039517627574344,0.00039517627656663,-0.00039517627516465,0.00039517627746794,-0.00041364687105803,0.0004136468723376,-0.00041364687081636,0.00041364687259977,-0.00050105545811338,0.00050105545786081,-0.00050105545851369,0.00050105545746142,-0.00050105545833565,0.00050105545757878,-0.00050105545873611,0.00050105545717955,-0.00046963012789776,0.00046963012579239,-0.0004696301271809,0.00046963012655685,-0.00046963012677612,0.00046963012696384,-0.0004696301274921,0.0004696301261985,-0.00039517627694171,0.00039517627536822,0.77930010967794,132758,2964,0.0018753612777741,0.0024765126417861,0.0018409650537463,17.480136277964,5.5041090223715e-05,5.5041090223715e-05,5.5041090223715e-05,3957202.6288719,0.0062121439196353
20391759,0.44629135750072,0.0072857576273633,0.002263212651697,0.00278787453756,0.0022346704381064,-0.00051924673251712,0.00051924673274626,-2.9039995201022e-13,4.6606755607373e-13,-2.3043487213754e-15,2.747882818772e-13,-0.00031898369924264,0.00031898370056931,-0.0003913664978759,0.00039136649846609,-0.00039136649757742,0.0003913664986717,-0.00031898370107733,0.0003189837003691,-0.00031898369951295,0.00031898370028578,-0.00039136649814547,0.00039136649819183,-0.00039136649784574,0.00039136649839621,-0.00061293008303236,0.00061293008281278,-0.0006129300827744,0.00061293008305921,-0.00061293008294245,0.00061293008290465,-0.00061293008268604,0.00061293008315264,-0.00057134379317137,0.00057134379266069,-0.00057134379252074,0.00057134379349171,-0.00057134379326504,0.00057134379256878,-0.00057134379261054,0.00057134379339592,-0.00031898370079776,0.00031898370064339,1.7575463081667e-14,-2.5741765444971e-13,-7.0917354847019e-13,4.7468828444434e-13,-0.00070972896320944,0.00070972896297521,-0.00066202701058639,0.00066202701160418,-0.00070491362942463,0.00070491362905908,-0.00070491362953934,0.00070491362863564,-0.00071105562819032,0.00071105562766025,-0.00071105562781459,0.00071105562806236,-0.00071105562824169,0.00071105562753158,-0.00071105562786596,0.00071105562793371,-0.00066202701230677,0.00066202701082156,-0.00066202701069083,0.00066202701152447,-0.00070491362918187,0.00070491362960527,-0.00070491362929657,0.00070491362918182,-0.00066202701220233,0.00066202701090129,9.1595915042964e-16,-7.5559122603023e-13,-0.00050586231533616,0.00050586231440798,1.9949086892618e-13,-9.662853703511e-13,-0.00044606224430964,0.00044606224379956,-0.00046774951369401,0.00046774951205526,-0.00046774951343366,0.00046774951229878,-0.00044606224374943,0.00044606224407757,-0.00044606224315273,0.00044606224496109,-0.00046774951255363,0.00046774951319389,-0.00046774951229341,0.00046774951343753,-0.00058200752354095,0.00058200752313356,-0.00058200752392734,0.00058200752274804,-0.00058200752376687,0.00058200752285502,-0.00058200752415349,0.00058200752246973,-0.00054467588892889,0.00054467588673976,-0.00054467588822043,0.00054467588751313,-0.00054467588782936,0.00054467588790671,-0.00054467588853675,0.00054467588713228,-0.00044606224490876,0.00044606224291846,0.78426977394945,132758,2964,0.0021614878652211,0.0029526505403772,0.0021056719807282,18.603775609612,6.40302048769e-05,6.40302048769e-05,6.40302048769e-05,4114638.7380672,0.007246066826662
21391759,0.49628659458597,0.0080643216831743,0.0024885298994821,0.0031302160152725,0.0024455757684197,-0.00056184729021171,0.00056184729065487,-2.5062531415692e-13,5.0590700077075e-13,8.2574220061317e-14,3.1728968201801e-13,-0.00032437484888396,0.000324374850764,-0.00040925911615788,0.00040925911712765,-0.00040925911526505,0.00040925911673892,-0.00032437485100629,0.00032437485093191,-0.00032437484911675,0.00032437485052351,-0.00040925911638571,0.00040925911689388,-0.00040925911549392,0.0004092591165062,-0.00067282961075949,0.00067282961059343,-0.00067282961024995,0.00067282961058834,-0.00067282961068382,0.00067282961067147,-0.00067282961017472,0.00067282961066683,-0.0006226745581419,0.00062267455766534,-0.00062267455739416,0.00062267455839943,-0.00062267455822045,0.00062267455758614,-0.00062267455747145,0.00062267455831896,-0.000324374850769,0.00032437485116795,3.884440156549e-15,-2.3013016085802e-13,-8.5619365820969e-13,6.3464066455304e-13,-0.00078941212767446,0.00078941212745332,-0.0007328802002725,0.00073288020158855,-0.00078245479735579,0.00078245479686027,-0.00078245479732141,0.00078245479636812,-0.00079253514069289,0.00079253514005563,-0.00079253514003245,0.0007925351403851,-0.00079253514074055,0.00079253513995157,-0.00079253514008011,0.00079253514028106,-0.00073288020263902,0.00073288020088129,-0.00073288020040107,0.0007328802015607,-0.00078245479704648,0.0007824547975463,-0.00078245479701211,0.00078245479705414,-0.00073288020251043,0.00073288020090915,2.457868351309e-13,-5.1080254239178e-13,-0.00054316810614674,0.00054316810682873,7.033942029664e-13,-7.7632987924332e-13,-0.00047045298622475,0.00047045298671392,-0.00049577457701676,0.0004957745772595,-0.00049577457684406,0.00049577457759064,-0.00047045298526043,0.00047045298718519,-0.00047045298476855,0.00047045298817343,-0.00049577457557264,0.00049577457870217,-0.00049577457539961,0.00049577457903297,-0.00063401841411771,0.00063401841436486,-0.00063401841461006,0.00063401841387363,-0.00063401841432593,0.00063401841406855,-0.00063401841481828,0.00063401841357732,-0.00059067541413352,0.0005906754122124,-0.00059067541343827,0.00059067541299919,-0.00059067541294301,0.00059067541349644,-0.00059067541363769,0.00059067541270909,-0.00047045298671795,0.00047045298572698,0.75706678963193,132758,2964,0.0023387093117682,0.0032835463626605,0.0022608367364295,15.311204350825,3.76896348066e-05,3.76896348066e-05,3.76896348066e-05,4325663.4258914,0.0079144197135818
22391759,0.5435231739979,0.008800483050539,0.0027013520484895,0.0034565508373379,0.0026425801647116,-0.00060732837686489,0.00060732837721303,-2.7369716815115e-13,4.8300295047376e-13,4.4044095659581e-14,2.8768862307475e-13,-0.00033718542195162,0.0003371854235521,-0.00043329555693409,0.00043329555773056,-0.00043329555634461,0.00043329555764531,-0.00033718542385331,0.00033718542348326,-0.00033718542219125,0.00033718542330259,-0.00043329555717094,0.00043329555748904,-0.00043329555658152,0.00043329555740379,-0.00073418526144355,0.00073418526125173,-0.0007341852610112,0.00073418526132395,-0.00073418526136437,0.00073418526133252,-0.00073418526093305,0.00073418526140582,-0.00067584714913239,0.00067584714863429,-0.00067584714845118,0.0006758471494353,-0.00067584714921467,0.00067584714855298,-0.00067584714853064,0.00067584714935113,-0.00033718542360672,0.00033718542372589,8.3726265749465e-15,-2.3402586169998e-13,-8.4650191384465e-13,6.2546418937335e-13,-0.00086908232590107,0.00086908232568055,-0.00080344453526762,0.00080344453656938,-0.00085794039930542,0.00085794039882572,-0.00085794039933512,0.00085794039838143,-0.00087551635240125,0.00087551635177724,-0.00087551635158366,0.00087551635193104,-0.00087551635241287,0.00087551635163053,-0.00087551635159533,0.00087551635178436,-0.00080344453758166,0.00080344453583924,-0.00080344453535822,0.00080344453649777,-0.00085794039891198,0.00085794039941349,-0.00085794039894177,0.00085794039896925,-0.00080344453749109,0.00080344453591087,7.9329539772308e-14,-6.7744586331742e-13,-0.00058311950556531,0.00058311950550479,4.9267475059514e-13,-9.6543737419798e-13,-0.00049978866950611,0.00049978866929448,-0.00052833854467546,0.00052833854387614,-0.0005283385444644,0.0005283385441689,-0.00049978866861113,0.00049978866980286,-0.00049978866806603,0.00049978867073806,-0.00052833854325043,0.00052833854529953,-0.00052833854303917,0.00052833854559212,-0.000687273325995,0.00068727332597927,-0.00068727332647913,0.00068727332549614,-0.00068727332620666,0.00068727332568626,-0.00068727332669089,0.00068727332520326,-0.00063909230840848,0.00063909230623233,-0.00063909230771556,0.00063909230702187,-0.00063909230722731,0.00063909230751245,-0.00063909230791938,0.00063909230672205,-0.00049978867005282,0.00049978866836086,0.76056733864337,132758,2964,0.0025278729279707,0.0036142588224338,0.002426980564498,14.810799405771,3.368639524617e-05,3.368639524617e-05,3.368639524617e-05,4515430.2162828,0.0086061455671019
23391759,0.59174519048942,0.0095403504148284,0.002915123426011,0.0037865448249179,0.0028386821638995,-0.00065475986285221,0.00065475986314421,-2.8620081558507e-13,4.7062382864744e-13,1.8606740400382e-14,2.7644256957514e-13,-0.00034709968546873,0.00034709968690988,-0.00045591916471164,0.00045591916541687,-0.00045591916434301,0.00045591916555244,-0.00034709968726269,0.000347099686706,-0.00034709968572151,0.00034709968664634,-0.00045591916496257,0.00045591916516182,-0.00045591916459344,0.00045591916529689,-0.00079937008128894,0.00079937008108043,-0.0007993700809439,0.00079937008124007,-0.0007993700812049,0.00079937008116589,-0.00079937008086115,0.00079937008132683,-0.00073174874620128,0.00073174874569655,-0.00073174874555773,0.00073174874653551,-0.00073174874628852,0.0007317487456108,-0.00073174874564161,0.00073174874644639,-0.00034709968700201,0.00034709968696166,1.3653553481549e-14,-2.4249669299543e-13,-8.0353123392237e-13,5.793994771334e-13,-0.00095410817684642,0.00095410817662287,-0.00087871569322265,0.00087871569443906,-0.00094017898482958,0.00094017898439015,-0.00094017898490441,0.00094017898396409,-0.00096304257597462,0.0009630425753828,-0.00096304257525807,0.00096304257557677,-0.00096304257599281,0.00096304257523322,-0.00096304257527627,0.00096304257542719,-0.00087871569529478,0.00087871569363154,-0.00087871569330665,0.00087871569435164,-0.00094017898444333,0.0009401789849252,-0.00094017898451819,0.00094017898449914,-0.00087871569521076,0.00087871569371895,-1.4232820711803e-14,-7.7115285357437e-13,-0.00062408001247442,0.00062408001191009,3.1709378359081e-13,-1.0505176794648e-12,-0.00052751989212136,0.00052751989153996,-0.00056019350047049,0.00056019349901595,-0.00056019350023116,0.00056019349928051,-0.00052751989135342,0.0005275198920024,-0.00052751989076792,0.00052751989289724,-0.00056019349913328,0.00056019350035144,-0.00056019349889391,0.00056019350061596,-0.00074338771750273,0.00074338771728257,-0.00074338771795639,0.00074338771682978,-0.00074338771772087,0.00074338771699591,-0.00074338771817472,0.00074338771654332,-0.00068916436791227,0.00068916436563194,-0.00068916436722027,0.00068916436642273,-0.00068916436676202,0.00068916436688354,-0.00068916436745298,0.00068916436609172,-0.00052751989270877,0.00052751989064703,0.75126033144582,132758,2964,0.0027251394548527,0.0039670704010016,0.0025973118527462,15.63535105548,4.0282808443841e-05,4.0282808443841e-05,4.0282808443841e-05,4596764.6275906,0.0093330721619728
24391759,0.64449237191543,0.010359128165548,0.0031514855776365,0.0041537158989194,0.0030539266889926,-0.00070951787239408,0.00070951787260757,-3.0217720987013e-13,4.5482525245957e-13,-1.4092143024116e-14,2.6129814987383e-13,-0.00036139674053806,0.00036139674176356,-0.00048414132994772,0.00048414133052831,-0.00048414132988133,0.00048414133096618,-0.00036139674221585,0.0003613967414098,-0.00036139674080694,0.00036139674148269,-0.00048414133021594,0.00048414133025647,-0.00048414133014847,0.00048414133069327,-0.00087351766286104,0.00087351766263045,-0.0008735176626634,0.00087351766293763,-0.00087351766277101,0.00087351766272167,-0.00087351766257499,0.00087351766303047,-0.00079621908668342,0.0007962190861688,-0.0007962190860839,0.0007962190870522,-0.00079621908677675,0.00079621908607759,-0.0007962190861732,0.00079621908695695,-0.00036139674193779,0.00036139674168154,1.9251117773919e-14,-2.5377803218179e-13,-7.3476879228835e-13,5.051326007149e-13,-0.0010507486697526,0.0010507486695236,-0.000964692308096,0.00096469230917297,-0.0010333679464062,0.0010333679460256,-0.0010333679465411,0.0010333679456266,-0.0010627900347734,0.0010627900342305,-0.001062790034328,0.0010627900345985,-0.0010627900348159,0.0010627900340936,-0.0010627900343705,0.0010627900344617,-0.00096469230975261,0.00096469230821783,-0.0009646923081807,0.00096469230907491,-0.0010333679460678,0.0010333679465126,-0.0010333679462027,0.0010333679461136,-0.00096469230966788,0.00096469230831588,-1.2553425692639e-13,-8.8265600605313e-13,-0.00067105207413416,0.00067105207286137,7.5327904666573e-14,-1.1469057789922e-12,-0.00056094475365827,0.00056094475261456,-0.00059784036675329,0.00059784036440908,-0.00059784036647367,0.00059784036463337,-0.00056094475308288,0.00056094475299064,-0.0005609447524444,0.00056094475383266,-0.00059784036555731,0.00059784036560323,-0.00059784036527782,0.00059784036582766,-0.00080687172214232,0.00080687172162352,-0.00080687172254716,0.00080687172121945,-0.00080687172237202,0.00080687172134828,-0.00080687172277715,0.00080687172094448,-0.00074697012108452,0.00074697011870138,-0.00074697012039093,0.00074697011949102,-0.00074697011998087,0.00074697011990392,-0.0007469701206732,0.00074697011911302,-0.00056094475429901,0.00056094475177483,0.76117801532844,132758,2964,0.0029528412049632,0.0043679009727453,0.0027926193570206,17.859293935434,5.8074351483469e-05,5.8074351483469e-05,5.8074351483469e-05,4657191.2790519,0.010165005497345
25391759,0.69917606635537,0.011229661287442,0.0034022470911525,0.0045461411524699,0.0032812730438193,-0.00076590288271622,0.00076590288292996,-3.0192048241886e-13,4.5523115182432e-13,-1.511923664711e-14,2.6345521632987e-13,-0.00037086704833926,0.00037086704954589,-0.00050975531323751,0.00050975531382995,-0.00050975531324777,0.00050975531434449,-0.00037086704998821,0.00037086704915676,-0.00037086704861171,0.00037086704926226,-0.00050975531350875,0.00050975531355488,-0.00050975531351823,0.00050975531406865,-0.000951478939097,0.00095147893886705,-0.00095147893896312,0.00095147893923812,-0.00095147893900594,0.00095147893895937,-0.00095147893887358,0.00095147893933195,-0.00086506140067354,0.000865061400164,-0.00086506140008165,0.00086506140105541,-0.00086506140076775,0.00086506140007156,-0.00086506140017219,0.00086506140095928,-0.00037086704970721,0.00037086704943191,1.9932802831262e-14,-2.5613654652785e-13,-6.9992864707205e-13,4.6864958748856e-13,-0.0011552417919469,0.0011552417917162,-0.001059598283042,0.0010595982840485,-0.0011378361974124,0.0011378361970568,-0.0011378361975585,0.001137836196663,-0.0011680603228858,0.0011680603223653,-0.0011680603226768,0.0011680603229237,-0.0011680603229574,0.0011680603222557,-0.0011680603227483,0.0011680603228141,-0.0010595982844498,0.0010595982829823,-0.0010595982831415,0.0010595982839632,-0.0011378361971209,0.0011378361975433,-0.001137836197267,0.0011378361971495,-0.0010595982843504,0.0010595982830676,-1.241067123016e-13,-8.8140433840837e-13,-0.0007180658584785,0.00071806585711969,2.1784525674165e-14,-1.1293866671302e-12,-0.00059244512108844,0.00059244512001255,-0.00063360601331273,0.00063360601085719,-0.00063360601302518,0.00063360601107356,-0.00059244512060403,0.00059244512033968,-0.00059244511994447,0.00059244512116064,-0.00063360601218649,0.00063360601198165,-0.00063360601189907,0.00063360601219814,-0.00087266036244543,0.00087266036188247,-0.0008726603628268,0.00087266036150186,-0.00087266036268108,0.00087266036161302,-0.00087266036306271,0.00087266036123267,-0.00080727826330063,0.00080727826097353,-0.00080727826260713,0.0008072782617637,-0.00080727826222066,0.00080727826215304,-0.00080727826291289,0.00080727826136161,-0.00059244512175022,0.00059244511919381,0.78098805528644,132758,2964,0.0031873134193629,0.0048011008262231,0.002988101843185,19.841064465179,7.3928515721434e-05,7.3928515721434e-05,7.3928515721434e-05,4610337.6592799,0.0110373887817
26391759,0.74934110937373,0.01204770663248,0.0036375447316438,0.0049173305265118,0.0034928313743244,-0.00081508872934091,0.00081508872964292,-2.8561695106879e-13,4.7161553364565e-13,2.0456000083239e-14,2.8324030308552e-13,-0.00037276958283205,0.00037276958426207,-0.00052744823569096,0.00052744823644821,-0.00052744823548401,0.00052744823674542,-0.00037276958451659,0.00037276958393844,-0.00037276958309087,0.00037276958399463,-0.00052744823594658,0.00052744823618814,-0.00052744823573976,0.00052744823648553,-0.0010218905190279,0.0010218905188216,-0.0010218905188137,0.0010218905191124,-0.0010218905189422,0.0010218905189088,-0.001021890518729,0.0010218905192006,-0.00092747151321155,0.00092747151271697,-0.00092747151260607,0.00092747151359501,-0.00092747151330004,0.00092747151262912,-0.00092747151269213,0.00092747151350475,-0.00037276958425121,0.00037276958419955,1.4862545959423e-14,-2.4596233160784e-13,-7.3727818621632e-13,5.1090916597274e-13,-0.0012528911117493,0.0012528911115236,-0.0011495964996307,0.0011495965007141,-0.0012381514513351,0.0012381514509426,-0.0012381514514197,0.0012381514505173,-0.0012643895419578,0.0012643895414083,-0.0012643895417288,0.0012643895420038,-0.0012643895420378,0.0012643895413178,-0.0012643895418088,0.0012643895419134,-0.0011495965011944,0.0011495964996597,-0.0011495964997459,0.0011495965006548,-0.0012381514510372,0.0012381514514765,-0.0012381514511219,0.0012381514510513,-0.0011495965010793,0.001149596499719,-1.3943836893001e-14,-7.7135705321856e-13,-0.00075706834043985,0.0007570683397606,2.1975130145447e-13,-1.0144624279868e-12,-0.00061498006966773,0.00061498006903586,-0.00066021303121386,0.00066021302959836,-0.00066021303095927,0.00066021302984772,-0.00061498006907657,0.00061498006941098,-0.00061498006844616,0.00061498007026096,-0.00066021303000801,0.00066021303080264,-0.00066021302975339,0.00066021303105196,-0.00093063029042368,0.00093063029013647,-0.00093063029083339,0.0009306302897276,-0.00093063029065503,0.00093063028986261,-0.0009306302910649,0.00093063028945391,-0.00086025449678207,0.00086025449460856,-0.00086025449608989,0.00086025449540031,-0.00086025449567583,0.00086025449581693,-0.00086025449636699,0.00086025449502414,-0.00061498007029996,0.0006149800681877,0.79882505480779,132758,2964,0.0033918776439434,0.00520573374867,0.0031502973398382,20.413027454949,7.8504219639591e-05,7.8504219639591e-05,7.8504219639591e-05,4504219.7704767,0.011817686123547
27391759,0.7973760654325,0.012802080382541,0.0038562075881907,0.0052596074670036,0.0036862653273466,-0.00086189584513345,0.00086189584538202,-2.97830989703e-13,4.5954537296901e-13,1.3785314162233e-15,2.6793757204404e-13,-0.00037297908484467,0.00037297908611938,-0.00054242439881211,0.00054242439947192,-0.00054242439879376,0.00054242439995781,-0.00037297908644241,0.00037297908570216,-0.00037297908510626,0.00037297908584816,-0.00054242439907154,0.00054242439920858,-0.00054242439905289,0.0005424243996942,-0.0010899781558411,0.0010899781556206,-0.0010899781557154,0.001089978156,-0.0010899781557539,0.0010899781557089,-0.0010899781556296,0.0010899781560898,-0.00098558080056076,0.00098558080005325,-0.00098558079998804,0.00098558080096443,-0.00098558080065089,0.00098558079996458,-0.00098558080007492,0.00098558080087251,-0.0003729790861733,0.00037297908596596,1.6393499189853e-14,-2.4776028219639e-13,-7.1553655261419e-13,4.8892583019562e-13,-0.0013464812781644,0.0013464812779385,-0.001234212221844,0.0012342122228859,-0.0013328830188381,0.0013328830184635,-0.0013328830189515,0.0013328830180607,-0.0013574275804482,0.0013574275799158,-0.0013574275803203,0.0013574275805805,-0.0013574275805279,0.0013574275798223,-0.0013574275804,0.0013574275804871,-0.0012342122232712,0.0012342122217775,-0.0012342122219494,0.0012342122228146,-0.0013328830185454,0.0013328830189727,-0.0013328830186589,0.0013328830185699,-0.0012342122231658,0.0012342122218488,-9.4480696400167e-14,-8.5207217566227e-13,-0.00079268689593303,0.00079268689478122,8.5325158080873e-14,-1.1032333705072e-12,-0.00063150118944664,0.0006315011884418,-0.00068197687298135,0.00068197687073269,-0.00068197687270265,0.00068197687095787,-0.00063150118893225,0.00063150118881044,-0.00063150118826671,0.00063150118962537,-0.00068197687181911,0.00068197687189337,-0.00068197687154042,0.00068197687211857,-0.00098567342807728,0.0009856734276041,-0.00098567342847121,0.00098567342721091,-0.00098567342831436,0.00098567342733583,-0.00098567342870854,0.00098567342694287,-0.00090877555379691,0.00090877555152183,-0.0009087755531033,0.0009087755523126,-0.00090877555270424,0.00090877555271442,-0.00090877555339667,0.00090877555192247,-0.0006315011901141,0.00063150118762879,0.76755915508585,132758,2964,0.0035865517645167,0.0055933683254477,0.0032984377420118,22.217515981354,9.2940127850836e-05,9.2940127850836e-05,9.2940127850836e-05,4365458.438009,0.012557145489762
28391759,0.84009676044237,0.013505982323296,0.0040616026240689,0.0055761490138609,0.0038682306853658,-0.00090459545237619,0.00090459545265442,-2.9288043505669e-13,4.645921599696e-13,1.3120371240488e-14,2.7413555917037e-13,-0.0003788419582203,0.00037884195956634,-0.00056019306515759,0.00056019306587359,-0.00056019306507464,0.00056019306629489,-0.00037884195981156,0.00037884195915295,-0.0003788419584771,0.00037884195930077,-0.00056019306541155,0.00056019306561554,-0.00056019306532862,0.00056019306603688,-0.0011504571745918,0.0011504571743791,-0.0011504571744456,0.0011504571747381,-0.0011504571745065,0.0011504571744657,-0.0011504571743614,0.0011504571748258,-0.0010389321087116,0.0010389321082084,-0.0010389321081489,0.0010389321091298,-0.0010389321087998,0.0010389321081213,-0.0010389321082342,0.0010389321090399,-0.00037884195954796,0.00037884195941184,1.4886192295867e-14,-2.4389310989467e-13,-7.2448767622233e-13,5.0016592615664e-13,-0.0014299242415447,0.0014299242413211,-0.0013100069543141,0.0013100069553758,-0.0014158591132477,0.0014158591128633,-0.0014158591133398,0.0014158591124498,-0.0014414449143248,0.0014414449137854,-0.0014414449142071,0.0014414449144753,-0.0014414449144074,0.0014414449136985,-0.0014414449142897,0.0014414449143885,-0.0013100069557829,0.0013100069542739,-0.0013100069544244,0.0013100069553132,-0.0014158591129566,0.0014158591133877,-0.0014158591130488,0.0014158591129743,-0.0013100069556725,0.0013100069543365,-5.7802759900657e-14,-8.1552493921408e-13,-0.00082472213845454,0.00082472213753381,1.4982318771034e-13,-1.0603479453334e-12,-0.00065077278531216,0.00065077278446211,-0.00070439594179623,0.00070439593984398,-0.00070439594152819,0.00070439594007982,-0.00065077278477212,0.00065077278484433,-0.00065077278411247,0.00065077278566518,-0.00070439594061352,0.00070439594102524,-0.00070439594034543,0.00070439594126103,-0.0010335695262738,0.0010335695259006,-0.0010335695266752,0.0010335695255,-0.0010335695265099,0.0010335695256313,-0.0010335695269115,0.0010335695252309,-0.00095368239355651,0.00095368239133592,-0.00095368239286249,0.00095368239212661,-0.00095368239245624,0.00095368239253553,-0.00095368239314915,0.00095368239174375,-0.00065077278597354,0.00065077278364298,0.80347150472013,132758,2964,0.0037641065494528,0.005938795253987,0.0034316653174006,23.416249180072,0.00010252999344057,0.00010252999344057,0.00010252999344057,4277652.1030394,0.013221894015816
29391759,0.87705955349537,0.014058994797063,0.004225131515476,0.0058228097972477,0.0040110534843389,-0.00093647173081388,0.0009364717310854,-2.9532877202638e-13,4.6235461067813e-13,1.2091880601348e-14,2.7093230408644e-13,-0.00036698184279776,0.00036698184412131,-0.00056199748443917,0.00056199748514388,-0.00056199748438616,0.00056199748559517,-0.00036698184435759,0.00036698184368065,-0.00036698184305229,0.00036698184385802,-0.00056199748469108,0.0005619974848881,-0.00056199748463802,0.00056199748533938,-0.0012014667420186,0.0012014667418039,-0.001201466741893,0.0012014667421836,-0.001201466741934,0.0012014667418897,-0.0012014667418095,0.0012014667422706,-0.0010798099853658,0.0010798099848586,-0.0010798099848163,0.0010798099857938,-0.0010798099854533,0.0010798099847723,-0.0010798099849009,0.0010798099857046,-0.000366981844096,0.00036698184393719,1.4591377772837e-14,-2.4192326749848e-13,-7.2368086263464e-13,5.0098951864351e-13,-0.001501759045643,0.0015017590454211,-0.0013743080911957,0.0013743080922583,-0.0014914685044947,0.0014914685041098,-0.0014914685045865,0.0014914685037005,-0.0015107651584399,0.0015107651579015,-0.001510765158361,0.00151076515863,-0.0015107651585238,0.0015107651578174,-0.0015107651584449,0.0015107651585459,-0.0013743080926467,0.00137430809114,-0.0013743080913049,0.0013743080921961,-0.0014914685042083,0.0014914685046387,-0.0014914685043001,0.0014914685042294,-0.0013743080925374,0.0013743080912022,-6.9761479128817e-14,-8.2772950754937e-13,-0.00084525618121971,0.00084525618023707,1.351985462478e-13,-1.0748982214207e-12,-0.00065025734616405,0.00065025734524856,-0.00070970892733614,0.00070970892529511,-0.00070970892706446,0.00070970892552742,-0.00065025734563355,0.00065025734564115,-0.00065025734496381,0.00065025734645213,-0.00070970892615339,0.00070970892647644,-0.00070970892588167,0.00070970892670864,-0.0010725222844786,0.0010725222840846,-0.0010725222848799,0.001072522283684,-0.0010725222847162,0.0010725222838165,-0.0010725222851177,0.0010725222834162,-0.00098506841416333,0.0009850684119289,-0.00098506841346839,0.00098506841271922,-0.00098506841306203,0.00098506841312831,-0.00098506841375583,0.00098506841233685,-0.00065025734683546,0.00065025734443934,0.72781454855102,132758,2964,0.0038967694560174,0.006236102765257,0.0035171630612351,24.73781200102,0.00011310249600816,0.00011310249600816,0.00011310249600816,4022775.0723787,0.013744452901363
30391759,0.90797019269812,0.014513732222845,0.0043614094555257,0.0060226106896857,0.0041297120776336,-0.00096335311948453,0.00096335311975601,-2.9577249376511e-13,4.6194765252219e-13,1.1893541072249e-14,2.6909249264436e-13,-0.00037463253466767,0.00037463253598423,-0.0005746338691991,0.00057463386990043,-0.00057463386915691,0.00057463387036255,-0.00037463253622144,0.00037463253554071,-0.00037463253492072,0.00037463253572258,-0.00057463386944937,0.00057463386964624,-0.00057463386940719,0.00057463387010839,-0.001240686615608,0.0012406866153938,-0.0012406866154931,0.0012406866157843,-0.0012406866155239,0.0012406866154791,-0.0012406866154101,0.0012406866158708,-0.0011100675479488,0.0011100675474407,-0.001110067547412,0.0011100675483888,-0.0011100675480357,0.001110067547355,-0.0011100675474961,0.0011100675483002,-0.00037463253596159,0.00037463253579569,1.4278504977945e-14,-2.4058936890993e-13,-7.2292574599705e-13,5.0124530586615e-13,-0.0015529037417118,0.0015529037414909,-0.00141412987959,0.0014141298806526,-0.0015340840173454,0.00153408401696,-0.0015340840174362,0.001534084016553,-0.0015682778187669,0.0015682778182291,-0.0015682778187165,0.0015682778189859,-0.0015682778188519,0.0015682778181472,-0.0015682778188016,0.0015682778189041,-0.0014141298810187,0.0014141298795142,-0.0014141298796995,0.0014141298805917,-0.0015340840170624,0.001534084017492,-0.0015340840171532,0.001534084017085,-0.0014141298809092,0.001414129879575,-7.0551899834948e-14,-8.2858315794152e-13,-0.0008637011696744,0.00086370116868107,1.3191335249057e-13,-1.0779119234718e-12,-0.00066126205453631,0.00066126205361601,-0.00072367307418999,0.00072367307213057,-0.00072367307391764,0.00072367307236215,-0.00066126205400438,0.00066126205400637,-0.00066126205333643,0.00066126205481914,-0.00072367307300763,0.00072367307331158,-0.00072367307273522,0.0007236730735431,-0.0011011305794484,0.001101130579061,-0.0011011305798496,0.0011011305786605,-0.0011011305796866,0.0011011305787935,-0.001101130580088,0.0011011305783932,-0.0010107296653938,0.001010729663161,-0.0010107296646983,0.0010107296639509,-0.001010729664292,0.0010107296643599,-0.0010107296649864,0.0010107296635688,-0.00066126205520593,0.0006612620528049,0.71334925647266,132758,2964,0.0040085101678887,0.0064476031590311,0.0035938886729519,26.077801257388,0.00012382241005911,0.00012382241005911,0.00012382241005911,3992448.5173298,0.014150048089457
31391759,0.93400945690421,0.014921701866126,0.0044836132538734,0.0062001416313286,0.0042379469809242,-0.00098856500217376,0.00098856500239292,-3.0483192288812e-13,4.5190154765909e-13,-9.2244534933954e-15,2.5895614789097e-13,-0.00037349968296248,0.00037349968414252,-0.0005819166734545,0.00058191667406513,-0.00058191667357871,0.00058191667469295,-0.00037349968452193,0.00037349968368576,-0.00037349968322558,0.00037349968387001,-0.00058191667371556,0.00058191667380038,-0.00058191667383947,0.00058191667442792,-0.0012786522735769,0.0012786522733482,-0.0012786522735546,0.0012786522738306,-0.001278652273489,0.0012786522734371,-0.0012786522734681,0.0012786522739209,-0.0011418096275408,0.0011418096270261,-0.0011418096270152,0.0011418096279834,-0.0011418096276317,0.0011418096269369,-0.0011418096271026,0.0011418096278908,-0.00037349968425122,0.00037349968395079,1.7783397905872e-14,-2.4760575015253e-13,-6.7959758067217e-13,4.5453932369449e-13,-0.0016054046708934,0.001605404670669,-0.0014606144449075,0.0014606144458824,-0.0015871612122955,0.0015871612119471,-0.0015871612124201,0.0015871612115534,-0.0016207508181971,0.0016207508176906,-0.0016207508183077,0.0016207508185464,-0.0016207508182904,0.0016207508176097,-0.001620750818401,0.0016207508184655,-0.0014606144461375,0.0014606144447139,-0.0014606144450151,0.0014606144458126,-0.0015871612120539,0.0015871612124601,-0.0015871612121786,0.0015871612120665,-0.0014606144460299,0.0014606144447837,-1.3632476919541e-13,-8.9339776613503e-13,-0.00087988771430354,0.00087988771281756,-2.1749673797689e-14,-1.1394639548642e-12,-0.0006666901989219,0.00066669019772401,-0.00073194690997451,0.00073194690730653,-0.00073194690968034,0.00073194690751559,-0.00066669019849799,0.00066669019804912,-0.00066669019780976,0.00066669019883956,-0.0007319469088815,0.00073194690839816,-0.00073194690858734,0.00073194690860722,-0.0011291536776003,0.001129153677002,-0.0011291536779704,0.0011291536766325,-0.0011291536778433,0.0011291536767399,-0.0011291536782136,0.0011291536763707,-0.0010359026042149,0.0010359026019173,-0.00103590260352,0.0010359026027059,-0.0010359026031442,0.0010359026030845,-0.0010359026038378,0.0010359026022947,-0.00066669019961195,0.0006666901969354,0.75947296946623,132758,2964,0.0041133798386636,0.0066647313743108,0.0036612691854964,28.363580451493,0.00014210864361194,0.00014210864361194,0.00014210864361194,3797423.3894501,0.014545099950675
32391759,0.95365921448928,0.015242781127902,0.0045801857115946,0.0063384804824517,0.0043241149338554,-0.0010057540748901,0.0010057540751864,-2.9098166953326e-13,4.6566524483465e-13,2.0143222873662e-14,2.7745679594416e-13,-0.00035621596428735,0.00035621596566923,-0.00057628831460169,0.00057628831535601,-0.0005762883145041,0.000576288315762,-0.00035621596581693,0.00035621596520284,-0.00035621596454146,0.00035621596540748,-0.00057628831485203,0.00057628831510158,-0.00057628831475474,0.00057628831550776,-0.0013088351266036,0.0013088351263958,-0.0013088351264699,0.0013088351267668,-0.0013088351265195,0.0013088351264812,-0.0013088351263868,0.0013088351268532,-0.0011674845117666,0.0011674845112653,-0.0011674845112446,0.0011674845122261,-0.0011674845118533,0.0011674845111792,-0.0011674845113292,0.0011674845121376,-0.00035621596555703,0.00035621596545841,1.4824958872389e-14,-2.402635112176e-13,-7.0696392847256e-13,4.8618301784695e-13,-0.0016513200064736,0.0016513200062535,-0.0015061690531833,0.001506169054216,-0.001643304750525,0.0016433047501509,-0.0016433047506012,0.001643304749729,-0.0016594347311798,0.0016594347306522,-0.0016594347311472,0.0016594347314081,-0.0016594347312683,0.0016594347305738,-0.0016594347312358,0.0016594347313298,-0.001506169054603,0.0015061690531301,-0.0015061690532985,0.0015061690541608,-0.0016433047502585,0.0016433047506789,-0.0016433047503347,0.0016433047502569,-0.0015061690544878,0.0015061690531854,-3.3571415592769e-14,-7.9058678929274e-13,-0.00088784441180663,0.00088784441103218,1.7242915152543e-13,-1.0080696894571e-12,-0.00065765165579777,0.00065765165506963,-0.00072623435286565,0.00072623435113714,-0.00072623435260302,0.00072623435137763,-0.00065765165529708,0.00065765165543233,-0.00065765165462837,0.00065765165624186,-0.00072623435171282,0.00072623435228884,-0.00072623435145008,0.00072623435252921,-0.0011509568791489,0.0011509568788516,-0.0011509568795406,0.0011509568784606,-0.0011509568793859,0.0011509568785836,-0.0011509568797779,0.0011509568781927,-0.0010533129443963,0.001053312942242,-0.0010533129437005,0.0010533129430298,-0.001053312943304,0.0010533129434288,-0.0010533129439987,0.0010533129426401,-0.00065765165646798,0.00065765165426132,0.78951276097134,132758,2964,0.0041850297104549,0.0068546694704643,0.0036945211352514,29.295088042461,0.00014956070433969,0.00014956070433969,0.00014956070433969,3480697.3491428,0.014844415180791
33391759,0.96755633227656,0.01547251031264,0.0046501553956,0.006435793064714,0.0043865618523255,-0.0010162963979601,0.0010162963983106,-2.822356720116e-13,4.7437142004345e-13,4.4205818660231e-14,2.8739405119136e-13,-0.00034433444199808,0.00034433444353107,-0.00057186389818526,0.00057186389904031,-0.00057186389792135,0.00057186389927987,-0.00034433444347781,0.00034433444304215,-0.00034433444223892,0.00034433444328329,-0.00057186389842185,0.00057186389879958,-0.00057186389815855,0.00057186389903973,-0.0013283720228658,0.0013283720226712,-0.0013283720226448,0.001328372022955,-0.0013283720227864,0.001328372022752,-0.0013283720225662,0.0013283720230365,-0.001183509388662,0.0011835093881643,-0.0011835093881516,0.0011835093891366,-0.0011835093887438,0.0011835093880825,-0.0011835093882317,0.0011835093890531,-0.0003443344432317,0.00034433444328476,1.0447974939184e-14,-2.309373549488e-13,-7.6007744927331e-13,5.4405900896632e-13,-0.0016816370680995,0.0016816370678843,-0.0015360046974218,0.0015360046985627,-0.0016786097789914,0.0016786097785717,-0.0016786097790222,0.0016786097781313,-0.0016854891595974,0.0016854891590318,-0.0016854891594228,0.0016854891597219,-0.0016854891596797,0.0016854891589565,-0.0016854891595051,0.0016854891596466,-0.0015360046990732,0.0015360046975015,-0.0015360046975401,0.0015360046985198,-0.0016786097786838,0.0016786097791328,-0.0016786097787145,0.0016786097786923,-0.0015360046989548,0.0015360046975444,2.9071012635813e-14,-7.2792758584133e-13,-0.00089106887814486,0.00089106887789417,3.4549849672867e-13,-9.4854940481974e-13,-0.00064875973203746,0.00064875973159925,-0.00072005069690652,0.00072005069584743,-0.00072005069666713,0.00072005069611111,-0.00064875973140891,0.00064875973205138,-0.00064875973075945,0.00064875973288009,-0.0007200506956435,0.00072005069710924,-0.00072005069540399,0.00072005069737277,-0.0011639228722841,0.0011639228722051,-0.0011639228727141,0.0011639228717759,-0.0011639228725168,0.0011639228719327,-0.0011639228729469,0.0011639228715036,-0.0010637812688606,0.0010637812667543,-0.0010637812681633,0.0010637812675405,-0.001063781267729,0.0010637812679773,-0.0010637812684254,0.0010637812671902,-0.0006487597326882,0.0006487597307718,0.79431188431573,132758,2964,0.004229007703429,0.0069800290270301,0.0037080673998832,29.275785948544,0.00014940628758835,0.00014940628758835,0.00014940628758835,3267717.85636,0.015030129771495
34391759,0.97821770984331,0.015642123216524,0.0047024141716415,0.0065066196728526,0.0044330893720302,-0.0010281872653973,0.0010281872656195,-3.0562225168529e-13,4.5106533791061e-13,-4.7158338756887e-15,2.5395734471862e-13,-0.00034290388150346,0.00034290388267727,-0.00057462917755016,0.0005746291781605,-0.0005746291776609,0.00057462917877467,-0.00034290388306165,0.00034290388223823,-0.0003429038817575,0.00034290388241432,-0.00057462917780192,0.00057462917790512,-0.00057462917791251,0.00057462917851915,-0.001346428043254,0.0013464280430281,-0.0013464280432357,0.0013464280435146,-0.0013464280431691,0.0013464280431139,-0.0013464280431522,0.0013464280436018,-0.0011983888675206,0.0011983888670021,-0.0011983888669943,0.0011983888679586,-0.0011983888676084,0.0011983888669161,-0.0011983888670786,0.0011983888678692,-0.00034290388280032,0.00034290388249399,1.5303179557193e-14,-2.4060466623672e-13,-7.0746138754023e-13,4.8681865375959e-13,-0.0017065667895689,0.001706566789349,-0.0015592828420643,0.0015592828430992,-0.0017043147066716,0.0017043147062984,-0.0017043147067852,0.0017043147059125,-0.0017091670199204,0.0017091670193953,-0.001709167020038,0.0017091670202979,-0.0017091670200126,0.0017091670193195,-0.0017091670201302,0.0017091670202221,-0.0015592828433293,0.0015592828418544,-0.0015592828421706,0.0015592828430344,-0.0017043147064144,0.0017043147068356,-0.0017043147065281,0.0017043147064497,-0.001559282843223,0.0015592828419192,-1.3730409221894e-13,-8.9440011786681e-13,-0.0008973649032668,0.00089736490179399,5.330131285795e-16,-1.1777295138188e-12,-0.00064756758926577,0.00064756758798886,-0.00072074156554362,0.00072074156279939,-0.00072074156525333,0.00072074156301218,-0.00064756758878905,0.00064756758838157,-0.00064756758809344,0.00064756758916425,-0.00072074156439124,0.00072074156395057,-0.00072074156410093,0.00072074156416332,-0.0011766977794425,0.0011766977788769,-0.0011766977798328,0.0011766977784873,-0.0011766977796855,0.0011766977786147,-0.001176697780076,0.0011766977782253,-0.0010751289531395,0.0010751289508309,-0.0010751289524447,0.0010751289516198,-0.0010751289520485,0.0010751289520188,-0.0010751289527421,0.0010751289512287,-0.00064756758996299,0.00064756758720779,0.76155683516971,132758,2964,0.0042784938798685,0.0070830773225185,0.0037343140750052,31.397002509897,0.00016637602007917,0.00016637602007917,0.00016637602007917,3116477.7774286,0.015211674010684
35391759,0.98668863535172,0.015773324396385,0.0047431745776414,0.0065607324021909,0.0044694174165531,-0.001043082350351,0.0010430823504326,-3.2868801763021e-13,4.2801386564668e-13,-6.5195883310517e-14,2.2954235528567e-13,-0.00035357865673916,0.00035357865754366,-0.0005863113974406,0.00058631139780057,-0.00058631139797505,0.00058631139883844,-0.00035357865843626,0.00035357865717447,-0.00035357865702677,0.00035357865724525,-0.0005863113977276,0.00058631139751016,-0.00058631139826134,0.00058631139854734,-0.001364757036896,0.0013647570366324,-0.0013647570371169,0.0013647570373581,-0.0013647570367991,0.00136475703673,-0.001364757037022,0.0013647570374578,-0.0012141744580145,0.001214174457483,-0.0012141744574672,0.0012141744584186,-0.0012141744581149,0.0012141744573859,-0.0012141744575626,0.0012141744583165,-0.00035357865813962,0.00035357865746397,2.6468838453978e-14,-2.6429790565982e-13,-5.5096609851095e-13,3.1821637889188e-13,-0.0017282535141647,0.0017282535139327,-0.0015772370440067,0.001577237044724,-0.001722734472486,0.0017227344722431,-0.0017227344727051,0.0017227344718945,-0.0017331572801367,0.0017331572797223,-0.0017331572806873,0.0017331572808362,-0.0017331572802498,0.0017331572796436,-0.0017331572808004,0.0017331572807575,-0.0015772370446585,0.0015772370434771,-0.0015772370441088,0.0015772370446318,-0.0017227344723649,0.0017227344726991,-0.0017227344725841,0.0017227344723505,-0.0015772370445564,0.0015772370435694,-2.9522286349711e-13,-1.0523449104089e-12,-0.00090866048263781,0.000908660479804,-4.5898866938768e-13,-1.3060277708657e-12,-0.00065754835219274,0.00065754835024791,-0.00073136909818285,0.00073136909376664,-0.00073136909783435,0.00073136909392122,-0.00065754835207791,0.00065754835036646,-0.00065754835133872,0.00065754835110559,-0.00073136909735246,0.00073136909459567,-0.0007313690970041,0.00073136909475039,-0.0011908355478856,0.0011908355467342,-0.0011908355481645,0.0011908355464559,-0.0011908355481403,0.0011908355464838,-0.0011908355484196,0.0011908355462058,-0.00108925369075,0.0010892536883311,-0.0010892536900581,0.001089253689123,-0.001089253689772,0.0010892536894122,-0.0010892536904624,0.0010892536886188,-0.00065754835293405,0.00065754834951092,0.73946268707163,132758,2964,0.0043403440009618,0.0071726878119559,0.0037812574157035,35.848142907052,0.00020198514325642,0.00020198514325642,0.00020198514325642,3037954.1464557,0.015413128543124
36391759,0.9921805701743,0.015859991192981,0.004770159755868,0.0065961996863727,0.0044936317507406,-0.0010500981906935,0.0010500981909498,-2.9707292462607e-13,4.5965828128444e-13,-1.3125628432826e-15,2.7469976252258e-13,-0.00035694222370765,0.00035694222498363,-0.00059064598133203,0.00059064598202123,-0.00059064598137497,0.0005906459825676,-0.00035694222528333,0.00035694222452692,-0.00035694222397992,0.00035694222470382,-0.0005906459816006,0.00059064598174836,-0.00059064598164389,0.00059064598229511,-0.00137430778448,0.0013743077842614,-0.0013743077844309,0.0013743077847172,-0.0013743077843898,0.001374307784353,-0.0013743077843418,0.0013743077848098,-0.0012221106927421,0.0012221106922419,-0.0012221106922236,0.0012221106932065,-0.001222110692835,0.0012221106921495,-0.0012221106923144,0.0012221106931119,-0.0003569422250052,0.00035694222480098,2.0779776956784e-14,-2.5257130801697e-13,-5.8708072685149e-13,3.6015494512394e-13,-0.0017403913766601,0.0017403913764339,-0.0015867981297847,0.0015867981305765,-0.0017333622300529,0.0017333622297722,-0.0017333622301675,0.0017333622293529,-0.001746556063658,0.0017465560632121,-0.0017465560638377,0.0017465560640169,-0.0017465560637575,0.0017465560631325,-0.0017465560639372,0.0017465560639374,-0.0015867981308659,0.0015867981296216,-0.0015867981299021,0.0015867981305115,-0.0017333622298791,0.0017333622302292,-0.0017333622299937,0.0017333622298099,-0.0015867981307484,0.0015867981296867,-5.7731931182072e-14,-8.1489137033388e-13,-0.00091318175943143,0.00091318175827511,-1.897991282375e-14,-9.5280285576208e-13,-0.00066113205024586,0.00066113204950444,-0.0007353127629409,0.00073531276086961,-0.000735312762661,0.0007353127610928,-0.00066113205000026,0.00066113204963909,-0.00066113204931806,0.00066113205043525,-0.00073531276202942,0.0007353127617799,-0.00073531276174949,0.00073531276200306,-0.0011974352979096,0.0011974352974405,-0.0011974352982192,0.0011974352971316,-0.0011974352981507,0.0011974352971765,-0.0011974352984606,0.0011974352968677,-0.0010958636168106,0.0010958636147246,-0.0010958636161147,0.0010958636155125,-0.0010958636158004,0.0010958636158294,-0.0010958636164953,0.0010958636150404,-0.00066113205092959,0.00066113204870979,0.75248385621749,132758,2964,0.00436949203285,0.0072228307630373,0.0038000673438695,37.528756890993,0.00021543005512794,0.00021543005512794,0.00021543005512794,2983085.2595501,0.015512759498901
37391759,0.99542241040201,0.015910832786081,0.0047860218946116,0.0066169062595403,0.0045079046319295,-0.001052215147238,0.0010522151475903,-2.8098268087786e-13,4.7573581953845e-13,3.7768081505153e-14,2.9445615897823e-13,-0.0003505586341132,0.00035055863564662,-0.00058708900652332,0.00058708900738861,-0.00058708900628094,0.00058708900764982,-0.00035055863559609,0.00035055863513439,-0.0003505586343676,0.00035055863538553,-0.00058708900677335,0.00058708900713451,-0.00058708900653134,0.00058708900739635,-0.0013793458949718,0.0013793458947783,-0.0013793458947636,0.0013793458950751,-0.0013793458948882,0.0013793458948636,-0.0013793458946806,0.001379345895161,-0.0012260050038601,0.0012260050033705,-0.0012260050033601,0.001226005004354,-0.0012260050039459,0.0012260050032843,-0.0012260050034449,0.0012260050042664,-0.00035055863533708,0.00035055863539044,1.4844134757167e-14,-2.3997514686517e-13,-6.558598315794e-13,4.3520728376034e-13,-0.0017486692299535,0.0017486692297337,-0.0015954671227444,0.0015954671236762,-0.0017449126818372,0.0017449126814968,-0.0017449126818844,0.0017449126810461,-0.0017524976549496,0.0017524976544536,-0.0017524976548708,0.0017524976551001,-0.0017524976550377,0.0017524976543756,-0.001752497654959,0.0017524976550225,-0.0015954671241634,0.0015954671227915,-0.0015954671228672,0.001595467123629,-0.0017449126815986,0.0017449126819854,-0.0017449126816454,0.0017449126815345,-0.0015954671240406,0.0015954671228388,6.051785710336e-14,-6.9663539473747e-13,-0.00091291215866796,0.00091291215845362,2.6575088149299e-13,-8.1658394362693e-13,-0.00065592037203244,0.00065592037184302,-0.00073091772756669,0.00073091772672417,-0.00073091772732629,0.00073091772698676,-0.00065592037161621,0.00065592037208772,-0.00065592037096416,0.00065592037291363,-0.00073091772651148,0.00073091772777792,-0.00073091772627108,0.00073091772804045,-0.0012005834976849,0.0012005834976115,-0.0012005834980448,0.0012005834972525,-0.0012005834979183,0.0012005834973398,-0.0012005834982784,0.0012005834969807,-0.0010977530179366,0.0010977530159733,-0.0010977530172377,0.0010977530167584,-0.0010977530168744,0.0010977530171242,-0.001097753017572,0.001097753016338,-0.00065592037268592,0.00065592037101836,0.74707712144833,132758,2964,0.0043783600995231,0.007257071817568,0.0037990105712885,37.635708332926,0.00021628566666341,0.00021628566666341,0.00021628566666341,2891846.180965,0.015555510590433
38391759,0.9972943396296,0.015940679298818,0.0047953559377967,0.0066289973072568,0.0045163260537648,-0.0010522601213883,0.0010522601217692,-2.7790792186846e-13,4.787892850807e-13,5.6300272712374e-14,2.9090092935276e-13,-0.00034792735475525,0.00034792735635837,-0.00058523287195037,0.00058523287285664,-0.00058523287160832,0.00058523287301798,-0.0003479273561873,0.00034792735583804,-0.00034792735498836,0.00034792735611931,-0.00058523287217852,0.00058523287262418,-0.00058523287183723,0.00058523287278631,-0.0013807341701827,0.0013807341699977,-0.0013807341699177,0.0013807341702376,-0.0013807341701061,0.0013807341700757,-0.0013807341698418,0.0013807341703161,-0.0012267017021069,0.0012267017016119,-0.0012267017016148,0.0012267017026027,-0.0012267017021856,0.0012267017015326,-0.0012267017016925,0.0012267017025224,-0.00034792735594971,0.00034792735607273,7.9722270421715e-15,-2.2509221917545e-13,-7.5720072465527e-13,5.4445862083934e-13,-0.0017514702278666,0.0017514702276546,-0.0015976611414048,0.0015976611425433,-0.0017478473502705,0.0017478473498466,-0.0017478473502794,0.0017478473494007,-0.0017551758180088,0.0017551758174432,-0.0017551758177851,0.0017551758180849,-0.0017551758180879,0.0017551758173706,-0.0017551758178643,0.0017551758180123,-0.0015976611430916,0.0015976611415289,-0.0015976611415243,0.0015976611425072,-0.0017478473499546,0.001747847350398,-0.0017478473499636,0.001747847349952,-0.0015976611429721,0.001597661141565,7.5030093911546e-14,-6.8211098550703e-13,-0.00091163460375093,0.00091163460381764,4.1768082101998e-13,-8.7609205951837e-13,-0.00065335350660762,0.00065335350640057,-0.00072861799648798,0.00072861799587016,-0.0007286179962611,0.00072861799614633,-0.00065335350597381,0.00065335350684177,-0.00065335350533218,0.00065335350767839,-0.00072861799522607,0.00072861799713106,-0.00072861799499901,0.00072861799740705,-0.0012006223420184,0.0012006223420865,-0.0012006223424488,0.0012006223416569,-0.0012006223422491,0.001200622341812,-0.0012006223426795,0.0012006223413825,-0.0010976455145169,0.0010976455124898,-0.0010976455138175,0.0010976455132743,-0.0010976455133834,0.0010976455137106,-0.001097645514082,0.0010976455129254,-0.00065335350725028,0.00065335350556496,0.75852412772755,132758,2964,0.0043785782331381,0.0072686351965851,0.0037937325312376,37.195100741713,0.0002127608059337,0.0002127608059337,0.0002127608059337,2857154.3401871,0.015562128495076
38880000,0.9979777263327,0.015951708377565,0.0047988068047112,0.0066334556874613,0.0045194458853923,-0.0010526172644483,0.0010526172647978,-2.8450719085355e-13,4.7216489921585e-13,4.8764591157566e-14,2.7838117211687e-13,-0.00034463028574624,0.00034463028726502,-0.00058319680771103,0.00058319680855441,-0.00058319680744723,0.00058319680879385,-0.0003446302871904,0.00034463028676732,-0.00034463028597372,0.00034463028703075,-0.00058319680793448,0.00058319680832714,-0.00058319680767107,0.00058319680856712,-0.0013821205367509,0.0013821205365579,-0.0013821205365304,0.0013821205368423,-0.0013821205366758,0.0013821205366341,-0.0013821205364562,0.0013821205369193,-0.0012277917711298,0.0012277917706237,-0.0012277917706333,0.0012277917716101,-0.0012277917712072,0.0012277917705465,-0.001227791770709,0.0012277917715312,-0.00034463028695766,0.00034463028699638,6.2415152083477e-15,-2.2164169039556e-13,-7.9869569598297e-13,5.8756006790648e-13,-0.0017540645497589,0.0017540645495486,-0.0016010286250883,0.0016010286263099,-0.0017523395659668,0.0017523395655117,-0.0017523395659835,0.0017523395650837,-0.0017563086815946,0.0017563086810023,-0.0017563086814055,0.0017563086817321,-0.001756308681674,0.0017563086809331,-0.0017563086814849,0.0017563086816629,-0.0016010286268041,0.0016010286251615,-0.0016010286252031,0.0016010286262726,-0.0017523395656303,0.0017523395660981,-0.001752339565647,0.0017523395656702,-0.0016010286266892,0.0016010286251988,1.9879286083809e-14,-7.3723424270583e-13,-0.00091113478748189,0.00091113478724338,3.7903883238856e-13,-9.974700573862e-13,-0.00065039206495621,0.00065039206443138,-0.00072603049892218,0.00072603049780463,-0.00072603049868426,0.00072603049806967,-0.00065039206424736,0.00065039206496595,-0.00065039206359673,0.00065039206579341,-0.0007260304975783,0.00072603049914743,-0.00072603049734017,0.00072603049941233,-0.001201531607897,0.0012015316078493,-0.0012015316083545,0.0012015316073926,-0.00120153160813,0.0012015316075771,-0.0012015316085876,0.0012015316071206,-0.0010979488386342,0.0010979488364858,-0.0010979488379354,0.0010979488372707,-0.0010979488374735,0.001097948837735,-0.0010979488381714,0.0010979488369492,-0.00065039206560803,0.00065039206360503,0.76740395879116,132758,2964,0.0043800975930366,0.0072793774290579,0.003791682600616,37.193629556303,0.00021274903645043,0.00021274903645043,0.00021274903645043,2817461.5264341,0.01557252028779
