time,ASR_ext,ASR_strain,ASR_strain_xx,ASR_strain_yy,ASR_strain_zz,disp_x_101,disp_x_102,disp_x_103,disp_x_104,disp_x_105,disp_x_106,disp_x_p10_neg,disp_x_p10_pos,disp_x_p11_neg,disp_x_p11_pos,disp_x_p12_neg,disp_x_p12_pos,disp_x_p13_neg,disp_x_p13_pos,disp_x_p14_neg,disp_x_p14_pos,disp_x_p15_neg,disp_x_p15_pos,disp_x_p16_neg,disp_x_p16_pos,disp_x_p1_neg,disp_x_p1_pos,disp_x_p2_neg,disp_x_p2_pos,disp_x_p3_neg,disp_x_p3_pos,disp_x_p4_neg,disp_x_p4_pos,disp_x_p5_neg,disp_x_p5_pos,disp_x_p6_neg,disp_x_p6_pos,disp_x_p7_neg,disp_x_p7_pos,disp_x_p8_neg,disp_x_p8_pos,disp_x_p9_neg,disp_x_p9_pos,disp_y_101,disp_y_102,disp_y_103,disp_y_104,disp_y_105,disp_y_106,disp_y_p10_neg,disp_y_p10_pos,disp_y_p11_neg,disp_y_p11_pos,disp_y_p12_neg,disp_y_p12_pos,disp_y_p1_neg,disp_y_p1_pos,disp_y_p2_neg,disp_y_p2_pos,disp_y_p3_neg,disp_y_p3_pos,disp_y_p4_neg,disp_y_p4_pos,disp_y_p5_neg,disp_y_p5_pos,disp_y_p6_neg,disp_y_p6_pos,disp_y_p7_neg,disp_y_p7_pos,disp_y_p8_neg,disp_y_p8_pos,disp_y_p9_neg,disp_y_p9_pos,disp_z_101,disp_z_102,disp_z_103,disp_z_104,disp_z_105,disp_z_106,disp_z_p10_neg,disp_z_p10_pos,disp_z_p11_neg,disp_z_p11_pos,disp_z_p12_neg,disp_z_p12_pos,disp_z_p13_neg,disp_z_p13_pos,disp_z_p14_neg,disp_z_p14_pos,disp_z_p15_neg,disp_z_p15_pos,disp_z_p16_neg,disp_z_p16_pos,disp_z_p1_neg,disp_z_p1_pos,disp_z_p2_neg,disp_z_p2_pos,disp_z_p3_neg,disp_z_p3_pos,disp_z_p4_neg,disp_z_p4_pos,disp_z_p5_neg,disp_z_p5_pos,disp_z_p6_neg,disp_z_p6_pos,disp_z_p7_neg,disp_z_p7_pos,disp_z_p8_neg,disp_z_p8_pos,disp_z_p9_neg,disp_z_p9_pos,humidity,ndof,nelem,strain_xx,strain_yy,strain_zz,temp,thermal_strain_xx,thermal_strain_yy,thermal_strain_zz,vonmises,vstrain
14391759,0,0,0,0,0,0,0,0,0,0,0,0,0,0,0,0,0,0,0,0,0,0,0,0,0,0,0,0,0,0,0,0,0,0,0,0,0,0,0,0,0,0,0,0,0,0,0,0,0,0,0,0,0,0,0,0,0,0,0,0,0,0,0,0,0,0,0,0,0,0,0,0,0,0,0,0,0,0,0,0,0,0,0,0,0,0,0,0,0,0,0,0,0,0,0,0,0,0,0,0,0,0,0,0,0,0,0,0,0,0,0,0,0,0,0,0,0,0,0,0,0,0,0
15391759,0.10000914695604,0.001682059977951,0.000560686659317,0.000560686659317,0.000560686659317,-0.00015480215277168,0.00015467928376419,9.4403132221632e-08,-2.1645996118263e-07,1.1658462798068e-07,-2.4440604958076e-07,-0.00013073179351661,0.00012994306233754,-0.00013783893010723,0.00013746049016254,-0.00013794294570618,0.00013735701275294,-0.00013006955323426,0.00013060883582531,-0.00013037328218133,0.00013030484459154,-0.00013748736967825,0.00013781962836843,-0.00013759078030982,0.00013771601306589,-0.00016533795537355,0.00016543842397129,-0.00016544177896468,0.00016533496884434,-0.00016545375008183,0.00016531768442953,-0.00016555787317666,0.00016521446914978,-0.00015999424279036,0.00016005675171375,-0.00016029969905626,0.00015975317221001,-0.00015987474936006,0.00016017839827827,-0.00016017942596226,0.00015987425422095,-0.00013042559889975,0.00013024678528434,-1.1596408923163e-07,2.4482207546634e-07,-4.8972085790662e-08,1.7272400313997e-07,-0.00017273669843425,0.00017286091516114,-0.00016787699084454,0.00016809705459927,-0.00017635775945289,0.0001760561345804,-0.00017600680306919,0.00017641602967046,-0.00017010341907914,0.00017003488081244,-0.00017003154472651,0.00017010945171057,-0.00016998769392189,0.00017015552614251,-0.00016991595013792,0.00017023021365151,-0.00016797206967264,0.00016799839949596,-0.00016775754924521,0.00016821867565293,-0.00017628467564627,0.00017613048831021,-0.00017593371978319,0.00017649052341405,-0.00016809163851666,0.00016787692544927,-2.1309453357949e-07,9.769442226987e-08,-0.00015532230373712,0.00015520721311942,5.1039045136549e-08,-1.6900467822525e-07,-0.00014545940225314,0.00014481997897297,-0.00014896007696272,0.00014873002051986,-0.00014906420918573,0.00014862708807089,-0.00014493624935685,0.00014534029454346,-0.00014524071688773,0.00014503722917496,-0.00014874344995905,0.00014894586167057,-0.00014884723921086,0.00014884272010067,-0.00016355077225078,0.00016340654299865,-0.00016362405309197,0.00016333355036026,-0.00016344693297291,0.00016350984315747,-0.00016352021248057,0.00016343684121204,-0.0001574025319985,0.0001575183749807,-0.00015770791931333,0.00015721491115753,-0.00015763394604433,0.0001572883493392,-0.00015732866618135,0.00015759153519423,-0.00014515400052811,0.00014512394739113,0.76481422721801,133000,2964,0.00064454867697077,0.0007197351885686,0.00064672764716756,27.138416912614,0.00013230733530091,0.00013230733530091,0.00013230733530091,1811411.0768834,0.0020130394444454
16391759,0.18802963716562,0.0031603223456436,0.0010232065645388,0.0011135855861964,0.0010235301949084,-0.00025426427470793,0.00025420597482726,1.4933926528421e-07,-2.0754885684243e-07,1.8924381805383e-08,-7.8223487802212e-08,-0.00020061697741051,0.0002001123233753,-0.00021706882474018,0.00021703396468123,-0.00021718833943699,0.00021691554982671,-0.00020017239642928,0.00020056031029366,-0.00020052046376128,0.00020020970474355,-0.0002169774404423,0.00021713185534096,-0.00021709628610654,0.00021701280190286,-0.00028009232969649,0.00028018517903992,-0.00028021154402706,0.00028006635910657,-0.00028012278555152,0.00028015173906711,-0.00028024252167933,0.00028003345482938,-0.00026954787709603,0.00026980655915476,-0.00026989827121173,0.00026945796626422,-0.0002695162657996,0.00026984057814221,-0.0002698655341397,0.00026949061296909,-0.00020026572482191,0.00020046033926865,1.6010837239068e-08,1.1131875997054e-07,-1.2806095905845e-07,2.5162520675787e-07,-0.0003039057331032,0.00030403008858103,-0.0002914175931562,0.00029188034486201,-0.00030824663706506,0.00030815522795845,-0.00030815323171364,0.00030824726167815,-0.00030054888726485,0.00030051454961063,-0.00030042507612353,0.00030064226374796,-0.00030051659640241,0.00030054559229239,-0.00030039310772799,0.00030067346893028,-0.00029175248375587,0.00029153581844259,-0.00029138559484603,0.00029191245206514,-0.00030812072298749,0.00030828250732789,-0.00030802763232299,0.00030837436634316,-0.0002917847642838,0.00029150377493771,-2.8874135493582e-07,6.8037543980799e-08,-0.00025385124973867,0.00025363060060555,7.4991924726467e-08,-3.0107333739716e-07,-0.00023560442887,0.00023465920372091,-0.00024338361400483,0.00024290807591651,-0.00024350259085321,0.00024278929952058,-0.00023488193008015,0.00023537999929438,-0.00023523007682591,0.00023503036462647,-0.00024301376694565,0.00024327584968499,-0.00024313341689535,0.00024315812896075,-0.00027403282368971,0.0002738203417705,-0.00027415769955251,0.00027369529490318,-0.00027391397335464,0.00027393926557748,-0.00027403881774255,0.00027381419699001,-0.00026245649778106,0.00026246013871899,-0.00026280595931808,0.00026211076292468,-0.00026267938802236,0.0002622363681863,-0.00026233056998858,0.00026258630213231,-0.00023525400298212,0.00023500776934412,0.78819745788902,133000,2964,0.0010587756615736,0.0012657224524185,0.001056702076796,24.452698970157,0.00011082159176125,0.00011082159176125,0.00011082159176125,2562681.799291,0.0033869379340368
17391759,0.26654654959462,0.0044176876145288,0.0014064230353062,0.0016080380484278,0.0014032265307948,-0.00033580207746907,0.00033602341141124,5.9364172951138e-07,-3.7416933618077e-07,-2.0780904518951e-07,4.3892950099248e-07,-0.00024112120957282,0.00024104050392996,-0.00027251778220577,0.0002737078475843,-0.00027284153157107,0.00027338594374678,-0.00024080522372108,0.00024133318610498,-0.00024176316044674,0.00024039630926621,-0.00027314845957584,0.00027306291424357,-0.00027347440407339,0.00027274392808404,-0.0003799180447727,0.00038024761757364,-0.00038024552437348,0.00037992982613276,-0.00037971096180979,0.00038046417037375,-0.00038003748339732,0.00038014504311471,-0.00035998680274603,0.00036136908358319,-0.00036094520425151,0.0003604305582335,-0.00036020057072346,0.00036115013204872,-0.00036116132951204,0.00036021532534329,-0.00024016707131489,0.00024198363433801,2.3928440315642e-07,-4.085352953926e-07,-1.6255948120461e-07,1.6657603701071e-09,-0.00042254438126396,0.00042238246481267,-0.0004010623185244,0.0004012788706792,-0.00042636411343855,0.00042678117421453,-0.00042699264177616,0.00042613112277576,-0.00041921762454099,0.00041921096215081,-0.00041915715076251,0.00041926796801754,-0.00041942544233415,0.00041899369819033,-0.00041936506472123,0.00041905070106586,-0.00040143570208545,0.00040089985589943,-0.00040127787435167,0.00040106135893473,-0.00042630911619534,0.00042683807700105,-0.00042693804525634,0.00042618814904473,-0.00040122138748434,0.0004011172623532,-7.5555073252675e-07,2.1107887310787e-07,-0.00033338918946961,0.00033285229743753,-1.8580005076928e-07,-3.5173547845973e-07,-0.00030270578959054,0.00030105482545662,-0.00031393494151934,0.00031355944062405,-0.00031425635788215,0.00031323697239337,-0.00030160737624734,0.00030215996458492,-0.00030254901896536,0.00030121256612149,-0.00031377788742445,0.00031371900290153,-0.00031409934009319,0.0003133988210583,-0.00036852450988889,0.00036772668406708,-0.00036857927581471,0.00036766995584026,-0.0003682032719194,0.00036804896875995,-0.00036825823877497,0.00036799292176975,-0.00034835615810675,0.00034870533034644,-0.00034930028985328,0.00034775488746151,-0.00034924602437201,0.00034780982368122,-0.00034830335730205,0.0003487597367031,-0.00030175943760726,0.00030200331131805,0.75884216173821,133000,2964,0.0013987258430886,0.0017586853961858,0.0013870642805001,22.118437637557,9.2147501100456e-05,9.2147501100456e-05,9.2147501100456e-05,3162913.8198266,0.0045548557220337
18391759,0.32308154343682,0.0052881175162928,0.0016678364250204,0.001963511194079,0.0016567698971934,-0.0003858162717312,0.00038660929195124,1.209933716835e-06,-4.2141609677581e-07,-6.2784772722513e-07,1.4525077410562e-06,-0.000261070336298,0.00026234882276448,-0.00030330181441556,0.00030671754046644,-0.00030384385582626,0.00030616803335204,-0.00026152378357656,0.00026185297613794,-0.00026312852823189,0.00026026661411093,-0.0003053246137568,0.00030464421317325,-0.00030587061802652,0.00030409946521673,-0.00044435587126835,0.00044500381921802,-0.00044490402190023,0.00044446302579905,-0.0004436907324004,0.00044569939085546,-0.00044423843382535,0.00044515907829702,-0.00041463353667331,0.00041770813137583,-0.00041624256319798,0.00041612327209975,-0.0004153238088462,0.00041700751151334,-0.00041693270999997,0.00041542258528778,-0.00025946689516776,0.00026394668098747,6.3146320516081e-07,-1.446412687596e-06,-7.7507841860895e-07,-6.5699644852878e-09,-0.00050086883077004,0.00050008253599062,-0.00046928775641802,0.00046995909945355,-0.00049878922970538,0.0004997691592085,-0.00050080066042016,0.00049768726276517,-0.00050119591717231,0.00050084225000389,-0.00050094278135356,0.00050110084442067,-0.00050186274492633,0.00050014869831797,-0.0005016114468752,0.00050040639314055,-0.00047073323829043,0.00046850917074563,-0.00046998159261135,0.00046926325808293,-0.00049853418038268,0.00050003170704749,-0.00050054948155502,0.00049795266078034,-0.00047003930295095,0.00046920517812807,-1.1599369645125e-06,4.702864278117e-07,-0.00038077791859216,0.00038009565428046,3.9033493162033e-08,-7.2703617470983e-07,-0.00033993054467092,0.00033689132005345,-0.00035527193593728,0.00035438118479799,-0.00035581571714699,0.00035383981515411,-0.00033759621373269,0.00033924718057861,-0.00033918528880759,0.00033764938644985,-0.00035452624009374,0.00035513700819965,-0.00035507275800889,0.00035459735283896,-0.00042769433214248,0.00042672918218726,-0.00042794813546682,0.00042647350407558,-0.00042715135927733,0.00042727255500517,-0.00042740510552884,0.00042701800414965,-0.00040023108644427,0.00040088231421419,-0.0004018206579406,0.00039927929901372,-0.00040156701799585,0.00039953687099055,-0.00039997951912274,0.00040113884531508,-0.00033834095462685,0.00033848893571257,0.73909361287582,133000,2964,0.0016080383667915,0.0020830779310396,0.0015839419332694,17.510852911414,5.5286823291311e-05,5.5286823291311e-05,5.5286823291311e-05,3544672.3160039,0.0052890600095218
19391759,0.38141439411461,0.0062301955420442,0.0019507833630139,0.0023486107947072,0.0019308013843231,-0.00044916704826758,0.00044969948843698,1.506635870626e-06,-9.768962625496e-07,-3.9782788694491e-07,9.4808289083704e-07,-0.00029278962728199,0.00029223433574867,-0.00034909220699421,0.00035179284754031,-0.00034991906885221,0.00035096199098416,-0.00029167988567008,0.00029330859282355,-0.00029411635130522,0.0002908846522585,-0.00035039368225939,0.00035044847437086,-0.00035122298954723,0.00034962039733055,-0.00052258490693117,0.00052350115940746,-0.00052341666658983,0.00052267594717029,-0.00052215659412845,0.00052395355562554,-0.00052298789971887,0.00052312871876671,-0.00048631024825857,0.00048971871736723,-0.00048875042555598,0.00048729505586993,-0.0004867553269577,0.00048926361687726,-0.00048919578664901,0.00048683988059671,-0.00029035313317643,0.00029466518174098,2.5984462907068e-07,-1.0773591041426e-06,-7.3348512617583e-07,-5.5578362642698e-08,-0.00059598970874298,0.00059519558028941,-0.00055567539127228,0.00055600354354545,-0.00059039730178395,0.00059066847592721,-0.00059169496889606,0.0005893392306515,-0.00059938188771713,0.00059880879828735,-0.00059915655247937,0.00059903685053337,-0.00059981853620833,0.00059836581493781,-0.00059959452381962,0.00059859325392497,-0.00055678935698456,0.00055489121744263,-0.00055612605455816,0.00055555545502362,-0.00059017182563517,0.00059089840885872,-0.00059147208397487,0.00058957031576356,-0.00055633876644286,0.00055533904912694,-1.5618068069358e-06,9.2071915096205e-07,-0.00044050377087126,0.0004398688173583,1.8097036421849e-08,-6.5796247553445e-07,-0.00039323510405428,0.00038949963354737,-0.00041121402737366,0.00041074244556276,-0.00041203983307677,0.0004099151909065,-0.00039015198373503,0.00039259813793592,-0.00039258293408893,0.00039017364909589,-0.00041055331111354,0.0004114052884435,-0.00041138438215594,0.00041058297470316,-0.00049950181285249,0.00049826918970857,-0.00049972586697609,0.00049804313344101,-0.00049867330533837,0.00049909528258211,-0.00049889881674192,0.00049887164888274,-0.00046703324559611,0.00046859918783872,-0.00046945946386673,0.00046616268451036,-0.00046923821277945,0.0004663927821072,-0.00046680855775756,0.00046882382438135,-0.00039081313379711,0.00039193386857007,0.77930570630124,133000,2964,0.0018710645338287,0.0024784425966534,0.0018325048507229,17.480212719125,5.5041701753004e-05,5.5041701753004e-05,5.5041701753004e-05,3830476.7124846,0.0062012474908
20391759,0.44560591929803,0.0072699969351575,0.002257212172227,0.0027882530150539,0.0022245317478766,-0.0005186365430404,0.00051912195175206,1.9023963560225e-06,-1.4189094159323e-06,-3.764835145581e-07,8.7755249855462e-07,-0.00031673859928047,0.00031522395727196,-0.00039051880031098,0.00039335808307023,-0.00039162476838905,0.00039224829459362,-0.00031471922635189,0.00031721121218183,-0.00031797536241011,0.00031396729845807,-0.00039173049769722,0.00039210659585924,-0.00039283882028964,0.0003909998736449,-0.00061219346017794,0.000613371680014,-0.00061330463804869,0.00061226729940719,-0.00061179372181525,0.00061379356751616,-0.00061290423158303,0.00061268930762371,-0.00056787595083379,0.00057202882153576,-0.00057113608046334,0.00056878399130452,-0.00056829041411752,0.0005716037073046,-0.00057155137795763,0.00056835937907957,-0.000313482768584,0.0003184753753069,1.7242721668523e-07,-1.0713333842735e-06,-6.8268296962137e-07,-1.90764638727e-07,-0.00070968333352907,0.00070880647878826,-0.00066102942571209,0.00066105919689057,-0.00070501571272351,0.00070517237439939,-0.0007062224293405,0.00070393986006301,-0.00071303513437677,0.00071240954235262,-0.00071286985973313,0.00071257525092096,-0.00071343906051347,0.00071199801551208,-0.00071327489056168,0.00071216316430065,-0.0006619322996334,0.00066016286608862,-0.00066144892294848,0.00066064238233141,-0.00070485172659584,0.00070533946933709,-0.00070606050479333,0.00070410802524874,-0.00066151257239463,0.00066057938721925,-1.9458345571307e-06,1.3745688876881e-06,-0.00050470398202416,0.00050413894625478,-3.7822416611708e-08,-5.2963615851382e-07,-0.00044504516149532,0.00044074416295719,-0.000465803171568,0.0004658633196307,-0.00046690764447945,0.00046475714892903,-0.00044132266295585,0.00044447698083691,-0.00044457430028101,0.00044123420855266,-0.0004653201427758,0.00046634164025075,-0.00046643101319007,0.00046524124271265,-0.00058068973342851,0.00057918560198573,-0.00058085369458242,0.00057902184347451,-0.00057958145599217,0.00058029076165345,-0.00057974666947725,0.00058012913220749,-0.00054184659615415,0.00054436447473256,-0.00054509480010034,0.00054110848746361,-0.00054493466893269,0.00054127635439018,-0.00054168354076769,0.00054452749063187,-0.00044180344884261,0.00044399726687844,0.78427550870917,133000,2964,0.0021599602175227,0.002950631055787,0.0020996847946639,18.602016157866,6.4016129262926e-05,6.4016129262926e-05,6.4016129262926e-05,4020744.1789322,0.0072364610244597
21391759,0.49563945318527,0.0080504850628451,0.0024845718926093,0.0031287475750871,0.0024371655951488,-0.00056253741962886,0.00056331923270422,2.3858908185533e-06,-1.6091014218105e-06,-6.8024520905639e-07,1.4910833846953e-06,-0.00032544180302176,0.00032447894576318,-0.00041094249320249,0.00041521909554425,-0.00041227416769952,0.00041388334054346,-0.0003236721259533,0.00032620895138369,-0.0003275866314028,0.00032230591208663,-0.00041305053456436,0.00041305646804271,-0.00041438221604481,0.00041172511217443,-0.00067236757505338,0.00067376218082944,-0.00067370314935877,0.00067243323499524,-0.00067167214426965,0.00067449007578984,-0.00067300751438409,0.00067316120778072,-0.00061912316460334,0.00062453377896916,-0.00062304303013759,0.00062062873797633,-0.00061984350347902,0.00062379934552787,-0.00062376339101874,0.00061989582041965,-0.00032152392239855,0.000328392895311,4.449891452439e-07,-1.7144696828973e-06,-9.3171225204447e-07,-3.0061954244286e-07,-0.00078856312382538,0.00078732711788067,-0.00073124584669534,0.00073135949761196,-0.0007810947204089,0.0007817395660811,-0.00078318866547621,0.0007795894792695,-0.00079407356501401,0.0007933467866474,-0.00079386445656674,0.00079355911663175,-0.0007947690116999,0.00079262818118383,-0.00079456061222703,0.00079284018693301,-0.00073258853087515,0.00073001858362495,-0.00073196865601261,0.00073063644229363,-0.00078088559441413,0.00078195166792751,-0.00078298083747347,0.00077980581256807,-0.00073186330018948,0.00073074257891184,-2.3044036562039e-06,1.6899115848965e-06,-0.00054348281673843,0.00054287437685593,8.8958354113713e-09,-6.2118850331978e-07,-0.00047188450871237,0.00046674543834173,-0.00049574514933291,0.00049584856361332,-0.00049707351613796,0.00049451891300676,-0.00046737045616148,0.00047127674173324,-0.00047127846126114,0.00046737185912909,-0.00049512471153906,0.00049646347909903,-0.00049646192724524,0.00049513911489384,-0.00063335621184402,0.00063163014365729,-0.00063356607221338,0.0006314206199874,-0.00063202374298017,0.00063296084363113,-0.00063223513326222,0.00063275349686271,-0.00058831416606484,0.00059140291611873,-0.0005922181870281,0.00058748263309067,-0.00059201206241429,0.000587696785157,-0.00058810642367489,0.0005916130830844,-0.00046798733680661,0.0004706582155771,0.75707132507277,133000,2964,0.002343194667069,0.003277446139185,0.0022608805770139,15.316349016796,3.7730792134367e-05,3.7730792134367e-05,3.7730792134367e-05,4154752.0558123,0.0079128298668921
22391759,0.54291079317728,0.0087893635607099,0.0027005037277715,0.0034516233408341,0.0026372364921043,-0.00060881294348084,0.00060981138926719,2.4139965811637e-06,-1.4214938967741e-06,-8.0760635430183e-07,1.8426803839159e-06,-0.00033982651546888,0.00033971099520754,-0.00043661041817013,0.00044153349907293,-0.00043789180054255,0.00044024896606197,-0.00033868133074256,0.00034080870505387,-0.00034244386145931,0.0003370635155456,-0.00043918491475035,0.00043889470959913,-0.00044046390122368,0.00043761461716363,-0.00073392842651886,0.00073532782063913,-0.00073521069316219,0.00073405225991042,-0.00073308015444796,0.0007362162282569,-0.00073436319114282,0.00073493979935029,-0.00067254148717758,0.00067816923566879,-0.00067630653366329,0.00067442200017122,-0.00067342102776782,0.00067727208500835,-0.00067718673712835,0.00067353018031996,-0.00033605856915965,0.00034347348886148,5.5365434349935e-07,-2.0812271725563e-06,-1.0030825841171e-06,-4.7716841072449e-07,-0.00086742105597331,0.00086593487419817,-0.00080133798134716,0.00080126254833398,-0.00085574739364614,0.00085663814228579,-0.00085829866281374,0.00085401044897812,-0.00087622629249935,0.00087544192774845,-0.00087605078661614,0.00087561881848145,-0.00087707675079606,0.00087456564712069,-0.00087690116232792,0.00087474273456112,-0.0008027447600517,0.00079986997366374,-0.00080222008627046,0.00080038403154763,-0.00085557244086494,0.00085681289389992,-0.00085812777851603,0.00085419177680966,-0.00080185596415977,0.00080075331442835,-2.2109973991278e-06,1.6236853190666e-06,-0.00058440630229495,0.0005838262005527,-2.8128321609708e-08,-5.538663895304e-07,-0.00050232242289147,0.00049747561283433,-0.00052949921755125,0.00052968093377739,-0.00053077422720934,0.00052840781544023,-0.00049807665138017,0.00050174617405556,-0.00050182839297296,0.00049799893731815,-0.00052898104703102,0.00053019955748356,-0.00053026958909997,0.00052892904734256,-0.00068694299212254,0.00068526288469091,-0.00068711785229695,0.00068508839090933,-0.00068566189995739,0.0006865398900061,-0.00068583940854259,0.0006863676466609,-0.00063724483109963,0.00064023852604935,-0.00064098986982854,0.00063647391378645,-0.00064082116079891,0.00063665205406844,-0.00063707283638593,0.00064041202672599,-0.00049858821182187,0.00050123145017144,0.76057157139515,133000,2964,0.0025361030791513,0.0036042712092103,0.0024311201587162,14.811610955614,3.3692887644908e-05,3.3692887644908e-05,3.3692887644908e-05,4339996.0504478,0.0086085391901584
23391759,0.5911690793686,0.009532033118104,0.0029172948879745,0.0037782345399758,0.0028365036901537,-0.00065676438004345,0.00065766896802998,2.6441404563355e-06,-1.7441426036771e-06,-7.2032756753786e-07,1.6557330241655e-06,-0.00035114767537099,0.00035012636880913,-0.00046039868109785,0.00046513118672458,-0.00046186126420736,0.0004636645960811,-0.0003491951538563,0.00035203737524772,-0.00035349643249555,0.00034775079773828,-0.00046270488281806,0.00046276669493553,-0.00046416829298308,0.00046130468267033,-0.00079912567908172,0.00080070620612846,-0.00080059284167297,0.00079924639073139,-0.00079836504321319,0.00080150405064559,-0.00079983156736033,0.00080004359020179,-0.00072851973233664,0.00073450761037052,-0.0007328249793312,0.0007302171391703,-0.00072930688469587,0.00073370264714076,-0.00073361378611872,0.00072941527247016,-0.00034684604843369,0.00035442551549758,4.0450634052729e-07,-1.9532831946085e-06,-8.5519207655442e-07,-6.4998820137451e-07,-0.00095175815169381,0.00095024809062945,-0.00087639663203502,0.00087588856576934,-0.00093776180181877,0.00093846045164388,-0.00094005008253844,0.00093612057348895,-0.00096300271916053,0.00096221050980944,-0.00096293069960604,0.00096227996635624,-0.00096376675905923,0.00096142829798371,-0.00096369497857192,0.00096149754239986,-0.0008773970724029,0.00087490463670182,-0.00087718728960255,0.00087510012631934,-0.00093769308825502,0.00093852969609066,-0.00093998302951361,0.00093619333803832,-0.00087660246646605,0.00087569486977078,-2.4288736689246e-06,1.9588642732894e-06,-0.00062590790299537,0.00062544480956416,-1.2665250773503e-07,-3.3451375579871e-07,-0.00053090054535977,0.00052594484009189,-0.00056182542488377,0.00056262382352601,-0.00056328337964981,0.00056116397075612,-0.00052642396226188,0.00053044141216817,-0.00053071899512072,0.00052615557452785,-0.00056161842670591,0.0005628243808271,-0.00056308817075145,0.00056136993351921,-0.00074335451965505,0.00074150025347165,-0.00074342400482334,0.00074143130271504,-0.00074188893016219,0.00074296099588445,-0.00074196132140501,0.00074289487083456,-0.00068715908706646,0.00069091852054021,-0.00069144916309677,0.00068661388483808,-0.00069138711092605,0.00068668766631559,-0.00068709211354913,0.00069098653564247,-0.00052662291840173,0.00053024202368803,0.75126456022956,133000,2964,0.0027353291824491,0.003954180050221,0.0026039388702467,15.634064784941,4.0272518279527e-05,4.0272518279527e-05,4.0272518279527e-05,4453796.0278799,0.0093370248484809
24391759,0.64395618324822,0.010353459838124,0.003156194090708,0.0041427080286984,0.0030545577187171,-0.00071152294622053,0.00071225650282329,2.9237822109358e-06,-2.1938207210609e-06,-5.5771685239715e-07,1.3171916807805e-06,-0.00036542597883902,0.00036304096475116,-0.00048866019821985,0.00049296060950767,-0.00049035858361341,0.00049126011662199,-0.00036226366898513,0.00036617180008353,-0.00036729827409968,0.00036115145467208,-0.00049047193820861,0.00049110849883335,-0.00049218626223323,0.00048939002420835,-0.00087313993634974,0.00087495844357102,-0.00087485194002044,0.00087325488322814,-0.00087254069293614,0.00087558866129404,-0.00087424957893892,0.00087388566115139,-0.00079281906134204,0.00079918291206107,-0.00079783797565144,0.00079418030634373,-0.00079343556047003,0.00079854293828606,-0.0007984625144909,0.00079354569147198,-0.00036042382330328,0.00036803592573864,2.0911756545123e-07,-1.6460140276184e-06,-6.790354906218e-07,-7.2269773090598e-07,-0.0010480765506698,0.0010466714914264,-0.00096240687589287,0.00096159856295061,-0.0010313771174743,0.0010317630491492,-0.0010331587830619,0.0010299326197698,-0.0010622381865958,0.0010614656471114,-0.0010622449965882,0.0010614534506506,-0.0010628398407963,0.0010608539846873,-0.0010628512817145,0.0010608381395943,-0.0009630086830999,0.00096103434684921,-0.00096304017380325,0.00096097157992706,-0.0010313810411401,0.0010317568081599,-0.0010331905139297,0.0010299111188974,-0.00096238608863377,0.00096164843113012,-2.748321930595e-06,2.3690191528037e-06,-0.00067287642986205,0.00067250550374748,-2.0093862083961e-07,-1.6200253641353e-07,-0.000564466927418,0.00055913131651626,-0.00059914671104594,0.00060053490085859,-0.00060085341458064,0.00059882639957786,-0.00055952524542697,0.0005640933711044,-0.00056452017321204,0.00055910877692108,-0.00059918306148846,0.00060048477388061,-0.00060089155125472,0.00059879538283097,-0.00080695200223873,0.00080486330680331,-0.00080694084153637,0.00080487624357598,-0.00080524301321859,0.00080656619043556,-0.00080523306502833,0.00080658338830808,-0.00074446624509768,0.00074911459873548,-0.00074947418482261,0.00074409549203393,-0.00074949548511548,0.0007440874172362,-0.00074448712130321,0.00074909768277013,-0.00055946855249938,0.0005641543107043,0.76118278553872,133000,2964,0.0029626762211948,0.0043538979081677,0.0027994197768356,17.85580523151,5.8046441852084e-05,5.8046441852084e-05,5.8046441852084e-05,4574712.6218339,0.010167654813686
25391759,0.69868984897392,0.011226037852741,0.0034083509985603,0.0045340977450127,0.0032835891091677,-0.00076756088699833,0.00076828529932899,3.0341433075607e-06,-2.3130288324599e-06,-5.6317903524522e-07,1.3114735738003e-06,-0.00037366970049365,0.00037103753994635,-0.00051352549362232,0.00051789421609385,-0.00051530403654175,0.00051611246612277,-0.00037028585941091,0.00037439273735988,-0.00037553167443029,0.0003691589738718,-0.00051534256752672,0.00051603655749456,-0.00051712766333367,0.00051424997815747,-0.00095102836471124,0.00095291428133999,-0.00095281579620641,0.00095113413800728,-0.00095042784336731,0.00095354422401113,-0.00095221365941268,0.00095176415532391,-0.00086151560870037,0.00086809735014151,-0.00086675936506842,0.00086286760066868,-0.00086213547658321,0.00086746040703771,-0.00086738294495231,0.00086223326650189,-0.00036843578211635,0.00037626719139947,1.9846490414662e-07,-1.6556556388192e-06,-7.5417476845558e-07,-6.6793425714507e-07,-0.0011526979399797,0.0011512730122442,-0.0010573559013673,0.0010566492328571,-0.0011364378408993,0.0011367633803674,-0.0011382302250079,0.0011349328473653,-0.0011674882120229,0.0011666545040265,-0.0011674565305705,0.001166685320315,-0.0011680889430864,0.0011660424100546,-0.0011680594545291,0.0011660713025023,-0.0010580763899839,0.0010559529931535,-0.0010579836358021,0.0010560268051816,-0.0011364054160156,0.0011367963283799,-0.0011382092835317,0.0011349614925592,-0.0010574512506562,0.001056570328506,-2.8860739651144e-06,2.4611401195244e-06,-0.00071966644221017,0.0007192486691846,-1.617303878685e-07,-2.5179740734443e-07,-0.00059585161770505,0.00059011882172961,-0.00063463077626617,0.00063591406104312,-0.00063641027849579,0.00063413312841367,-0.00059055427317749,0.00059543298394519,-0.0005957811585182,0.00059021741278413,-0.00063453866792583,0.00063599396187964,-0.00063632537482687,0.00063422461512878,-0.00087268631837027,0.00087051762733378,-0.00087271766781369,0.00087048842837459,-0.00087090047563252,0.00087229755755483,-0.00087093366152446,0.00087227181882467,-0.00080449902864836,0.0008092838539251,-0.00080973216929608,0.00080404026239924,-0.00080970907930547,0.00080407480126682,-0.00080447304786021,0.00080931123759009,-0.00059063332809946,0.00059535732151662,0.7809936134775,133000,2964,0.003195689040283,0.0047875928589691,0.0029938729728967,19.837941081669,7.3903528653348e-05,7.3903528653348e-05,7.3903528653348e-05,4579631.887371,0.011038026727827
26391759,0.74891298826538,0.012045447462369,0.0036440452831737,0.0049056382677525,0.0034957639114424,-0.00081654564830743,0.00081732300647919,3.2126273372899e-06,-2.4403166719216e-06,-6.0562548960086e-07,1.411834379427e-06,-0.00037479515250857,0.00037207469155346,-0.00053076398044001,0.00053542876382444,-0.00053263920515215,0.00053355253318097,-0.0003712563908342,0.00037558667017407,-0.00037681017356776,0.00037004267721693,-0.0005327179431853,0.0005334393357006,-0.00053460906120251,0.00053154384248143,-0.0010214279105691,0.0010234209386797,-0.0010233180827957,0.0010215383735861,-0.0010207814845132,0.0010240977016991,-0.0010226688133688,0.0010222161224637,-0.00092373950726006,0.00093071739744364,-0.00092928223090023,0.00092518767440874,-0.00092440533746561,0.00093003140345106,-0.00092995477057,0.00092450583888957,-0.00036927135661915,0.00037759183223979,2.4026243157698e-07,-1.7557780841736e-06,-7.4086082990046e-07,-7.3894084849544e-07,-0.0012505994279058,0.00124911752283,-0.0011476054605725,0.0011468119167185,-0.0012370801406467,0.0012375098995323,-0.0012389960856437,0.0012355387752037,-0.0012640264422664,0.0012632092707115,-0.0012640211329865,0.0012632131562289,-0.001264670284883,0.0012625505602145,-0.0012646693355225,0.001262550140335,-0.0011482952833658,0.001146153699912,-0.0011482869097017,0.0011461380215678,-0.0012370701717906,0.0012375202960899,-0.001239011647777,0.0012355307597474,-0.0011476272300211,0.0011468122635632,-3.0255532552765e-06,2.6277243585721e-06,-0.00075856428462028,0.0007581739316923,-1.88911982987e-07,-1.9522815294464e-07,-0.00061848346490072,0.00061255711727694,-0.000661022444307,0.0006625228127791,-0.00066290884459914,0.00066063748408222,-0.00061297297276596,0.00061808608360297,-0.00061848714317971,0.00061258041809336,-0.00066101551782283,0.00066251597823391,-0.00066290073472275,0.00066065132582564,-0.00093072539024918,0.00092845392126972,-0.00093072943207091,0.00092845211465881,-0.00092883845536359,0.00093033594592464,-0.00092884319359749,0.00093033876029534,-0.00085726572342275,0.00086240783401539,-0.00086279696913497,0.00085685886895842,-0.0008628017633312,0.00085686626645511,-0.00085727125150433,0.00086240519435985,-0.00061295894210891,0.00061810411496955,0.79883072436815,133000,2964,0.0033995283246683,0.0051931560100225,0.0031556884838535,20.411674922666,7.8493399381329e-05,7.8493399381329e-05,7.8493399381329e-05,4491640.6054061,0.011818149196936
27391759,0.79700440620627,0.012800876287302,0.0038628592685332,0.0052485074118337,0.0036895096069346,-0.00086251711949026,0.00086333004572153,3.4660348916765e-06,-2.6600577158482e-06,-6.454741584338e-07,1.4957870823563e-06,-0.00037252122677803,0.00036958062022962,-0.00054374405316713,0.00054871330607429,-0.00054575735281318,0.00054671200086456,-0.00036865463575766,0.00037342047212736,-0.00037471961769976,0.0003673702534442,-0.00054581122663444,0.00054663593466141,-0.00054787688148448,0.00054456130425121,-0.0010893558481447,0.0010915047775993,-0.0010914081432863,0.0010894643989455,-0.001088677050982,0.0010922193036009,-0.0010907211619575,0.0010901828098279,-0.00098135014777913,0.00098885746155323,-0.00098735750110201,0.00098287074038411,-0.00098204334833347,0.00098812847218949,-0.00098807311597063,0.00098214411741626,-0.00036657093487005,0.00037548749187183,3.7510425095969e-07,-1.7420538041219e-06,-9.2812727987445e-07,-4.0171029138008e-07,-0.0013447425784166,0.0013434086142741,-0.0012323601876296,0.0012322881369133,-0.0013327894354769,0.0013332984430047,-0.0013347887035191,0.0013312194352543,-0.0013574118197876,0.0013565977952522,-0.0013572293697205,0.001356784371799,-0.0013580897550921,0.0013559049235755,-0.0013579205778159,0.0013560808395925,-0.0012336071799628,0.0012310727781412,-0.0012331020436828,0.0012315596780777,-0.0013325863334843,0.0013335107112377,-0.0013346601981648,0.0013313546298107,-0.0012329101268078,0.0012317501428271,-3.5436286649356e-06,2.5846418323026e-06,-0.00079363751299223,0.00079269175404101,-2.0666193142135e-07,-7.3880647785621e-07,-0.00063465736290928,0.00062717611654809,-0.00068212350735177,0.00068272229460176,-0.00068418289198857,0.00068066542393307,-0.0006281968862921,0.00063368124035224,-0.00063413622494953,0.00062774185122357,-0.00068161224928948,0.00068321926574758,-0.00068364792500063,0.00068121373568795,-0.00098577333206376,0.00098297152547407,-0.00098595330105779,0.000982789930313,-0.00098372836545104,0.00098501037065837,-0.00098390659516028,0.00098483691525154,-0.0009055095200704,0.00091038552545704,-0.00091150578191922,0.00090436381889465,-0.00091134070511426,0.00090455222968528,-0.00090534780298636,0.0009105593920892,-0.00062866028026638,0.00063322859383385,0.76756559104763,133000,2964,0.0035908169415707,0.0055833881539157,0.0033004135000611,22.21330368582,9.2906429486563e-05,9.2906429486563e-05,9.2906429486563e-05,4393693.9271623,0.012553358594336
28391759,0.83978624375997,0.013505388479789,0.0040678000942528,0.0055664938257381,0.0038710945597984,-0.00090448881158774,0.0009053629683268,3.6046460647727e-06,-2.7387373493175e-06,-6.9360878723703e-07,1.6111982334677e-06,-0.00037613801840785,0.00037324633118522,-0.00055966531319039,0.00056493170422248,-0.00056173831775721,0.00056287264526139,-0.00037224269578271,0.00037712455826947,-0.00037851577507883,0.00037085390450024,-0.00056188675246664,0.00056271799776011,-0.00056402608799771,0.00056055298630065,-0.001149748396225,0.0011519763867838,-0.0011518709427758,0.0011498586546939,-0.0011490182577331,0.0011527473791431,-0.0011511281244114,0.0011506330876687,-0.0010342835647635,0.0010421132552046,-0.00104049646909,0.0010358994099833,-0.001035025820249,0.0010413197545644,-0.0010412724716995,0.00103512308222,-0.00036999034018566,0.0003793394867956,3.4252027606355e-07,-1.9383083023007e-06,-8.0993528089284e-07,-7.4963777050526e-07,-0.0014289881140831,0.0014274230715977,-0.0013088734462496,0.0013081789250973,-0.0014165569391847,0.001417143020055,-0.0014186856594879,0.0014149069077268,-0.001441975677802,0.0014411346036202,-0.0014419503309332,0.001441170284878,-0.0014427115702014,0.0014403964252673,-0.0014427014529784,0.0014404197387868,-0.001309744013576,0.0013073820737946,-0.0013096883992333,0.0013074027758727,-0.0014165094145664,0.0014172098233506,-0.0014187298146337,0.0014148678296155,-0.0013089801701538,0.001308097840666,-3.431495296888e-06,2.9138965076913e-06,-0.00082472874908432,0.00082422104922259,-2.1834840211868e-07,-2.8525387927972e-07,-0.00065252366607651,0.00064572514620638,-0.00070299544100658,0.00070457408725819,-0.00070513619000207,0.00070244673945057,-0.00064633798451148,0.00065200588411709,-0.00065247360019277,0.0006458661490164,-0.00070294402780928,0.00070461662694209,-0.0007050585766345,0.0007025483272401,-0.0010333209518263,0.0010307245949921,-0.0010333497218706,0.0010307020335485,-0.0010312034531302,0.0010328348411411,-0.001031228087862,0.0010328195815631,-0.00094964362279267,0.00095533427146117,-0.00095585208733257,0.0009490889228859,-0.00095584015320731,0.00094911637462109,-0.00094964565631274,0.00095534527702407,-0.00064630819359409,0.00065200927085517,0.80347863637826,133000,2964,0.0037654884642651,0.0059316579290953,0.0034306359370589,23.413404763721,0.00010250723810977,0.00010250723810977,0.00010250723810977,4327941.9769867,0.013215022540985
29391759,0.87680778080667,0.014058848347243,0.0042308300490076,0.0058146525708853,0.0040133657273498,-0.00093536778838533,0.0009361204039319,3.685662249056e-06,-2.9376608355346e-06,-5.8522927431685e-07,1.3665074900496e-06,-0.00036157004934262,0.00035783248700024,-0.00055919483125914,0.00056408822010298,-0.00056138691749554,0.00056189770128238,-0.00035702703027613,0.00036235629497145,-0.00036353686142085,0.00035585464144832,-0.00056108562912418,0.00056217546119505,-0.00056330155713841,0.00055995314272005,-0.0012006170944413,0.0012029318242737,-0.0012028317042662,0.001200724483161,-0.0011999929914975,0.0012035857906713,-0.0012022028139359,0.001201380231079,-0.0010749055928557,0.0010827867706104,-0.0010813983244817,0.0010763061644904,-0.0010755469480185,0.0010821236676942,-0.0010820509034186,0.0010756447741248,-0.00035510671449289,0.00036427881630896,2.0744325606859e-07,-1.7199329081211e-06,-8.1370524575168e-07,-6.6428303003123e-07,-0.0015017448743802,0.0015002647447061,-0.00137391595022,0.0013732489042418,-0.0014936648972096,0.001493975829238,-0.0014955097339858,0.0014920808732238,-0.0015119809024852,0.0015110918886795,-0.0015119275765709,0.0015111473644371,-0.001512603023017,0.0015104599830798,-0.0015125562228111,0.001510509904354,-0.001374729308477,0.0013724706287648,-0.0013745802874524,0.001372597610276,-0.0014936038586857,0.0014940413828223,-0.0014954815999391,0.0014921158252822,-0.0013740835326453,0.0013730985940126,-3.5819800378051e-06,3.0433989676607e-06,-0.00084402689586667,0.00084349674649933,-1.8611517980975e-07,-3.4048797093224e-07,-0.00065050117036151,0.00064333898268707,-0.00070676088642863,0.00070830116691497,-0.0007089735920435,0.00070609154885474,-0.00064390772706292,0.00064996111440696,-0.00065036018477475,0.00064351411050935,-0.00070661178433942,0.00070843798519054,-0.00070881849621487,0.00070625462298695,-0.0010719342522018,0.0010692498005998,-0.0010719885767386,0.001069198207111,-0.0010697226541101,0.0010714555188124,-0.0010697764761613,0.0010714092486891,-0.00098025899407867,0.00098616476092221,-0.00098674521179954,0.00097966308004098,-0.0009867005232483,0.00097972029466997,-0.00098021584451779,0.00098621215743962,-0.00064402971678937,0.00064984100163466,0.72782173344939,133000,2964,0.0038937790372828,0.0062329525872664,0.0035109638837226,24.734689995295,0.00011307751996236,0.00011307751996236,0.00011307751996236,4097145.7248615,0.013731957468509
30391759,0.90777241826277,0.014513846167742,0.0043665203534844,0.0060160302219556,0.0041312955923022,-0.00096126156682072,0.00096203843804759,3.5984006847347e-06,-2.8565746287039e-06,-6.9508749627382e-07,1.5881481911252e-06,-0.00036705906928494,0.00036380769554027,-0.00056965841311441,0.00057489869422511,-0.00057175843490107,0.00057278249409595,-0.00036303444814146,0.00036780107753248,-0.00036924210753418,0.00036163925687847,-0.00057180405086964,0.00057265812458101,-0.00057393392502217,0.00057049276802458,-0.0012395718479074,0.00124168741976,-0.0012417365775556,0.0012395674546659,-0.0012388206552538,0.0012424757453708,-0.0012409982128234,0.0012403487677684,-0.0011046236263007,0.0011124888687339,-0.0011111126003423,0.0011062491536448,-0.0011054870891626,0.0011117154297391,-0.0011118624727145,0.0011054840481047,-0.000360650610453,0.00037017353652516,2.9552818353044e-07,-1.9637283663089e-06,-8.3068716868901e-07,-7.4134290556055e-07,-0.0015539060150068,0.0015522951913565,-0.0014145627482675,0.0014138996384432,-0.0015368865705416,0.0015373061205278,-0.0015388739917298,0.0015350077117591,-0.0015704675499476,0.0015695928761386,-0.0015704201318434,0.0015696032865591,-0.0015711958531307,0.001568820716701,-0.0015711261236963,0.0015687892208684,-0.0014155537858571,0.0014131304374854,-0.0014152967327511,0.0014130977745275,-0.0015368540260573,0.0015373960597066,-0.0015388609424483,0.0015349395202306,-0.0014147626602277,0.0014139439282419,-3.3813598247974e-06,3.076740603221e-06,-0.00086123134232737,0.00086097628450175,-4.6504935731158e-08,-1.3708154729862e-07,-0.00065924758358933,0.00065259396107737,-0.00071861668153634,0.00072048157471331,-0.00072072000793314,0.00071833821965856,-0.00065288674505632,0.00065906669062463,-0.00065914554284312,0.00065273881172911,-0.00071855717022363,0.00072063817390292,-0.00072073060563985,0.00071850408306954,-0.0010999466121398,0.0010975614014473,-0.0010999816842803,0.0010975302564498,-0.0010978155030945,0.0010997214410638,-0.0010978431303638,0.00109971974185,-0.0010051649651271,0.0010111618025019,-0.0010114922959685,0.0010047190300871,-0.0010113728021476,0.0010047755637514,-0.0010051318333571,0.0010111453845973,-0.00065291831061741,0.00065888361256517,0.71335670369312,133000,2964,0.0040014857702502,0.0064483794738651,0.0035831212494571,26.074621021615,0.00012379696817292,0.00012379696817292,0.00012379696817292,4086943.2283939,0.014132808600912
31391759,0.93385863063103,0.014921906206707,0.0044879775103182,0.0061952311208211,0.004238697575568,-0.00098457367855061,0.00098586984095535,3.9481467870002e-06,-2.6673372509369e-06,-9.0979953008268e-07,2.280739784917e-06,-0.00036053996276097,0.00035862993633201,-0.00057243969844911,0.00057909981571276,-0.00057459323271836,0.00057697103425684,-0.00035716974180211,0.00036194263478862,-0.00036374555111043,0.0003553235586504,-0.00057545743055411,0.00057603237920348,-0.00057774192686976,0.0005737068433214,-0.0012771721328113,0.0012795989558146,-0.0012793900445544,0.001277396074742,-0.0012761456008686,0.0012806690310459,-0.0012783460883263,0.0012784742633046,-0.0011351919292659,0.00114399804239,-0.0011416792843634,0.0011375571899092,-0.0011362679573379,0.0011429278927836,-0.0011427841031736,0.0011364756272372,-0.00035409697307641,0.00036502546347007,5.194688665153e-07,-2.6419304338274e-06,-9.6217123115479e-07,-1.0929933726056e-06,-0.0016078388563718,0.0016057761142494,-0.001461621222508,0.0014605532397138,-0.001591392828274,0.0015923226877785,-0.0015942557919429,0.0015891995666976,-0.0016237276858285,0.001622758208725,-0.0016237661502862,0.0016227303382905,-0.001624743928111,0.0016217200880543,-0.0016247903747122,0.0016216699479095,-0.0014625672316925,0.0014596121467705,-0.0014626993669812,0.0014594712777732,-0.0015913457742852,0.001592335740517,-0.0015944545313448,0.0015890668531477,-0.0014615158187861,0.0014606437022992,-3.5244765017974e-06,3.0938268064475e-06,-0.00087550927610348,0.00087509512289457,-2.6923716948292e-07,-1.4440444294042e-07,-0.00066225045689293,0.00065544379459012,-0.00072452983157839,0.0007264602135266,-0.00072674791615494,0.00072424702472716,-0.00065594814174992,0.00066179214337152,-0.00066235333857189,0.00065534918605921,-0.00072467504611639,0.00072633970229893,-0.00072687703656293,0.00072416151485935,-0.0011271675061059,0.0011245169073925,-0.0011271327718354,0.0011245576476215,-0.0011249653259989,0.0011267216987428,-0.001124925095629,0.0011267746848827,-0.0010292809747734,0.0010353823622955,-0.0010357495559381,0.0010288679462777,-0.0010357697785376,0.0010288179362528,-0.0010293307637076,0.0010353207220491,-0.00065576453533995,0.00066193360707389,0.75948214347572,133000,2964,0.0040995828221504,0.0066704845835292,0.0036422665444921,28.358129219375,0.000142065033755,0.000142065033755,0.000142065033755,3923312.0163186,0.014517690707933
32391759,0.95354987817361,0.01524295961469,0.0045837855136172,0.0063351956642189,0.0043239784368535,-0.0010006994547238,0.0010017736135861,3.8064814044294e-06,-2.7460127020436e-06,-9.21821718527e-07,2.0655836023611e-06,-0.00033954353213573,0.00033726808155791,-0.00056406322985979,0.00057030335410576,-0.0005662096332939,0.00056824747039326,-0.00033606462057416,0.00034065875712235,-0.00034249617261682,0.00033426059173735,-0.00056692240716825,0.00056745141476025,-0.00056918975851022,0.00056517213486985,-0.0013074501209045,0.001309706492377,-0.0013096371366053,0.0013075180026677,-0.0013064929661977,0.0013107103625353,-0.0013086701841814,0.0013085172269545,-0.0011607784678658,0.0011692336972331,-0.0011671843072477,0.0011628083458928,-0.0011617598430384,0.0011682162877322,-0.0011682189631486,0.0011617981086943,-0.00033317993701041,0.00034359026844845,4.8952142258438e-07,-2.4660421388049e-06,-5.2483945325042e-07,-1.400840929986e-06,-0.0016548124898008,0.0016528772532428,-0.0015084679983072,0.0015066818821398,-0.0016492229939213,0.001650382897961,-0.0016519318933099,0.0016474556819594,-0.0016627502081634,0.0016620764545203,-0.0016630695549476,0.001661801923875,-0.0016637199807156,0.0016611318051663,-0.0016640125449225,0.0016608655353166,-0.0015086298344801,0.0015065946969691,-0.0015095029495765,0.001505744825343,-0.0016494409778825,0.0016501258631367,-0.001652330269092,0.0016470540275008,-0.0015076211793268,0.0015075451847363,-3.3566312061913e-06,3.2000375294453e-06,-0.00088178638536289,0.00088163683745028,-5.0517386220038e-07,3.6403559030494e-07,-0.00065061123707256,0.00064495377646848,-0.00071626549978941,0.00071917435807314,-0.00071846693831105,0.00071701756015853,-0.00064512449203743,0.00065052824968102,-0.00065155650311222,0.0006440823653349,-0.00071713768820232,0.00071833661988105,-0.00071933792780456,0.0007161732446418,-0.0011485280971341,0.0011459056450361,-0.0011482458710431,0.0011461961156397,-0.0011463436137967,0.0011480912032693,-0.0011460601815814,0.0011483865077467,-0.0010457618237158,0.0010523299529103,-0.001052160847089,0.001045874113726,-0.0010524564230795,0.0010455645568142,-0.0010460680634405,0.0010520236610778,-0.00064425274904353,0.00065134212381733,0.78952232979295,133000,2964,0.004166392302751,0.0068650573466351,0.0036691121215468,29.292819570028,0.00014954255656022,0.00014954255656022,0.00014954255656022,3613625.5246093,0.014810306464906
33391759,0.96747903550466,0.015472686518431,0.0046532233442146,0.0064337056011244,0.0043857575730923,-0.0010108942905158,0.0010116723219482,3.634994202598e-06,-2.8642032594082e-06,-6.1549107730826e-07,1.4314999074915e-06,-0.00032644762019607,0.00032295188686385,-0.00055879729089291,0.00056377127358559,-0.00056094100276626,0.0005616330061428,-0.00032212097800591,0.00032725920423405,-0.00032850066511839,0.00032088676874695,-0.00056077135605837,0.00056177642203098,-0.00056295131888698,0.00055958489615232,-0.0013270136664276,0.0013292751613455,-0.0013291877501672,0.0013271111916809,-0.0013263564718355,0.0013299629031301,-0.0013285262279836,0.0013278005318731,-0.0011771462176109,0.0011849628912676,-0.0011835265707789,0.0011786095407975,-0.0011778266551676,0.0011842677927734,-0.0011842146039754,0.0011779148325578,-0.00032010114759269,0.0003292793813372,2.1738225248173e-07,-1.80307142348e-06,-8.1515095641897e-07,-7.3001133100042e-07,-0.001685447499958,0.0016838975059579,-0.0015383264582452,0.0015375647879893,-0.0016856978646188,0.0016860351901574,-0.001687607180914,0.0016840470923364,-0.0016892149186077,0.0016883093110248,-0.0016891836755321,0.0016883427110273,-0.0016898692521168,0.0016876474464069,-0.0016898409703671,0.001687672547096,-0.0015391167787433,0.0015368234992098,-0.0015390208304057,0.0015368825911642,-0.0016856515292181,0.0016860864227622,-0.0016876123320926,0.0016840471471292,-0.0015384361673229,0.0015374864800414,-3.4960213063662e-06,3.0062760306831e-06,-0.00088442958735982,0.00088395147046476,-1.9036917105176e-07,-2.7928572625732e-07,-0.00064100391351493,0.00063408188059398,-0.00070966229309341,0.00071127924482908,-0.00071182888476597,0.00070911420204915,-0.00063460010001262,0.00064052352704759,-0.00064092769289448,0.00063419280412128,-0.00070958123278167,0.00071136131206256,-0.0007117482076553,0.00070921894484958,-0.0011613156063417,0.0011587020727805,-0.0011613491596007,0.0011586720802783,-0.0011591469076323,0.0011608680398598,-0.0011591791860136,0.0011608451095379,-0.001056182453661,0.0010620391728651,-0.0010625484869474,0.0010556503262826,-0.0010625186859574,0.0010556856667379,-0.0010561607482245,0.001062061688574,-0.00063465454382707,0.00064045245288833,0.79432064729863,133000,2964,0.0042083321058303,0.0069925226086275,0.003679571627843,29.275813108722,0.00014940650486978,0.00014940650486978,0.00014940650486978,3393401.3089999,0.014992959747958
34391759,0.97816328655233,0.01564230180081,0.0047051347857501,0.0065053524809011,0.0044318145341587,-0.0010209937188915,0.0010220596111302,3.7495012475198e-06,-2.6892028574779e-06,-6.3491446843731e-07,1.7467711593427e-06,-0.00031996280640937,0.00031717727337723,-0.00055735840277232,0.00056293420357799,-0.00055947114559542,0.00056083620915892,-0.00031600976214311,0.0003210924877783,-0.00032236197946507,0.00031475347499392,-0.00055964798267317,0.00056062964224611,-0.00056182674954191,0.00055843362801269,-0.0013447272895554,0.0013471423140217,-0.0013468813294881,0.0013449979750105,-0.0013439627489464,0.0013479428796054,-0.0013461098886878,0.0013457972484688,-0.0011912131197476,0.0011993628238892,-0.0011975276390546,0.00119306747241,-0.0011919970635881,0.0011985513261299,-0.001198332825334,0.0011922634681897,-0.00031369274197568,0.0003234155311615,3.2082086307088e-07,-2.0308404662443e-06,-5.6273473209859e-07,-1.1043674197688e-06,-0.0017116155230754,0.0017099438874617,-0.001562729073416,0.0015613517686189,-0.0017129740699674,0.0017137111955992,-0.0017151702129628,0.0017113919431796,-0.001713327960295,0.0017126146629613,-0.0017135029969644,0.0017124440701842,-0.0017140931764017,0.0017118454005084,-0.0017142716128872,0.0017116677444242,-0.0015630317457057,0.0015611369606192,-0.0015635500452364,0.0015605599026138,-0.0017131197198818,0.0017135681898473,-0.0017154131718611,0.0017111638758497,-0.0015622460257041,0.0015618815028613,-3.3604925949365e-06,3.0800355343522e-06,-0.00088850719094385,0.00088823885550878,-3.9311515176625e-07,1.4075327951255e-07,-0.00063612973028574,0.00063010640243753,-0.00070693488005356,0.00070937815319065,-0.00070910390561035,0.00070723186808918,-0.00063041277919403,0.00063585432592158,-0.00063666570501663,0.00062960056451755,-0.0007074801621688,0.00070884186625932,-0.0007096203473086,0.00070673306853819,-0.0011732152762464,0.001170621243895,-0.0011730418053577,0.0011707983037659,-0.0011710656394087,0.0011727662529053,-0.0011708917270831,0.0011729505515476,-0.0010662175133768,0.0010724302200108,-0.0010725192463944,0.0010660990729039,-0.0010727033278924,0.0010659248582532,-0.0010664090590943,0.0010722415240169,-0.00062982742748925,0.00063641333083378,0.76156673932451,133000,2964,0.0042510223033888,0.0071004288705507,0.0036970669871135,31.391922115903,0.00016633537692723,0.00016633537692723,0.00016633537692723,3264429.1358782,0.015163663667073
35391759,0.98665198371905,0.015773459321476,0.00474558088091,0.0065601733980847,0.0044677050424813,-0.001032903308025,0.0010340143595456,3.7803814077538e-06,-2.6881610629341e-06,-7.3853190422664e-07,1.942825533934e-06,-0.00032300886085451,0.00032045893601557,-0.0005623794013104,0.00056834508930536,-0.00056450339497012,0.00056626870657719,-0.00031924743667229,0.0003241876924406,-0.00032564867199631,0.00031777353960824,-0.00056490793021313,0.00056581553931796,-0.00056718366295509,0.00056350807944107,-0.0013623289896311,0.0013646814947758,-0.0013645068022881,0.0013625319761525,-0.0013614707942476,0.0013655789351405,-0.0013636321804738,0.0013634507799344,-0.0012055487317861,0.0012138649332622,-0.0012119560583329,0.0012075988973642,-0.0012064762552657,0.0012129750414818,-0.0012128466313313,0.0012066748272762,-0.00031664523567516,0.00032676019946852,6.0538003020985e-07,-2.0428588163011e-06,-2.8869050721442e-07,-1.0841847818368e-06,-0.0017351330145841,0.0017337531838307,-0.0015821158869951,0.0015809080944625,-0.0017338135066966,0.0017351361724558,-0.0017360417524075,0.001732456796373,-0.0017382534695527,0.001738011244031,-0.0017384459742442,0.0017377419025679,-0.0017390900188032,0.0017371382103954,-0.0017393401803652,0.0017368247057598,-0.0015822983545509,0.0015808124490321,-0.0015830411903136,0.0015799794409606,-0.0017338785630828,0.0017348909047545,-0.0017365160183318,0.0017320492429424,-0.001581455127307,0.0015817421461691,-3.3402807697557e-06,3.1289915757492e-06,-0.00089603539768411,0.00089585847167816,-4.6026021312992e-07,3.2395603362835e-07,-0.00064012978931143,0.0006343364753981,-0.00071195232358283,0.00071470713464505,-0.0007140598347316,0.0007125583512735,-0.00063461233099643,0.00063985592420118,-0.00064081863287505,0.00063363869613539,-0.00071270505573402,0.0007139232104427,-0.00071483658339691,0.00071180512997797,-0.0011856682156013,0.0011830906964708,-0.0011854117856883,0.0011833250617432,-0.0011835284452097,0.0011852350061085,-0.0011832534388829,0.0011855084724071,-0.0010780765621816,0.0010844854052715,-0.0010844144216468,0.0010780697618473,-0.0010846346593321,0.0010778663831856,-0.0010783588152261,0.0010841878050857,-0.00063378975909849,0.00064071350941485,0.73947519876996,133000,2964,0.0043006402996647,0.0071981904820007,0.0037285982450596,35.837303194956,0.00020189842555965,0.00020189842555965,0.00020189842555965,3236804.3338388,0.015345342341299
36391759,0.99215820542175,0.015860068099422,0.0047722819268578,0.0065962549679049,0.0044915312046593,-0.0010388656837157,0.0010397525989762,3.6957213859066e-06,-2.8162103427273e-06,-6.9938371728412e-07,1.628236167557e-06,-0.00032297301346265,0.00031985313442327,-0.00056397418422031,0.0005693403919184,-0.00056612151534561,0.00056719894845271,-0.00031891053400801,0.00032389361393126,-0.00032530459438104,0.00031751010036896,-0.00056622175803539,0.00056707033809094,-0.00056840841082688,0.0005648725402951,-0.0013718429555378,0.0013741239236589,-0.0013740218451917,0.0013719560557297,-0.001371095348269,0.0013749053369844,-0.0013732691852405,0.0013727387020163,-0.001213197096862,0.0012212292570733,-0.0012195911053649,0.0012148640862904,-0.0012139708593578,0.0012204390974728,-0.0012203737066723,0.001214075386487,-0.00031661328776105,0.00032619399252742,3.0340734868957e-07,-1.99618222588e-06,-5.2416622898974e-07,-1.1244903403078e-06,-0.0017481816282815,0.0017465281348854,-0.0015918188609155,0.001590375780122,-0.001746114384006,0.0017468461184052,-0.0017482906556548,0.0017445804455887,-0.0017521845879622,0.0017514923178396,-0.001752372091707,0.0017512960936719,-0.0017529283794904,0.0017507377588145,-0.0017531195939369,0.0017505326693572,-0.0015920379654583,0.0015902204869576,-0.001592605906683,0.001589599454579,-0.0017462907647693,0.0017466681637759,-0.0017485251781237,0.0017443489127233,-0.0015912661696836,0.0015909779632169,-3.3800975331511e-06,3.1351515695174e-06,-0.00089897733658675,0.00089874563977506,-4.0319529207373e-07,1.8937514929436e-07,-0.00064160765536728,0.00063559773211005,-0.00071402445755467,0.00071656824141749,-0.00071619375285527,0.00071439900638358,-0.00063586848199479,0.00064137403563577,-0.00064220527526883,0.00063503337544202,-0.00071461243267941,0.00071598043214619,-0.00071678244293924,0.00071383453364711,-0.0011914548779295,0.0011888549056644,-0.0011912623650492,0.0011890503744258,-0.0011892819268046,0.0011910248340394,-0.0011890879067184,0.0011912281006772,-0.0010838068275603,0.0010901491406638,-0.001090186565303,0.0010837470911129,-0.0010903852969896,0.0010835549284369,-0.0010840144305388,0.0010899428242064,-0.0006352458803532,0.00064198016019554,0.75249744098627,133000,2964,0.0043249834397582,0.0072515236768836,0.0037407565467798,37.524565013028,0.00021539652010422,0.00021539652010422,0.00021539652010422,3198090.9917765,0.015436584020941
37391759,0.99540926232433,0.015910875902227,0.0047879696869161,0.0066173453028228,0.0045055609124877,-0.0010406527779343,0.0010415603778789,3.7019392573963e-06,-2.8026821558726e-06,-7.1851276124316e-07,1.6700118015123e-06,-0.00031535312603682,0.00031232379156499,-0.00055952057115505,0.00056496678421827,-0.00056166493644102,0.00056282833084844,-0.00031135856791941,0.00031629708317129,-0.00031774743755254,0.00030991826197931,-0.00056182723521798,0.00056263762894862,-0.00056401208672882,0.00056044128716487,-0.0013768889343014,0.0013791678577867,-0.0013790658224797,0.0013770025080887,-0.0013761219330367,0.0013799696563528,-0.0013782932154655,0.0013778056141724,-0.0012170073947554,0.0012250711945288,-0.0012233942156166,0.0012187136962261,-0.0012178011749433,0.0012242603917546,-0.0012241974787872,0.0012179046137992,-0.00030900255916197,0.00031865628499692,3.2527245967578e-07,-2.0352896041818e-06,-4.6073309795953e-07,-1.204571856041e-06,-0.0017567953710253,0.0017551252399078,-0.0016009238622819,0.0015993440534567,-0.0017581880778947,0.0017590097164284,-0.0017604195775766,0.0017566816188824,-0.0017582368735113,0.0017575948879753,-0.0017584702685026,0.0017573507662312,-0.0017589995416934,0.0017568199834434,-0.0017592369957263,0.0017565665022596,-0.0016010253560076,0.0015993116255921,-0.0016017317453298,0.0015985476684182,-0.0017584109540757,0.0017587842269684,-0.0017607031745041,0.0017564011529636,-0.0016002328755401,0.0016000880531981,-3.3543533324038e-06,3.1535932017586e-06,-0.00089819776961396,0.00089801052329372,-4.5132758729355e-07,2.8391662420572e-07,-0.00063550699349694,0.00062969056965761,-0.00070879114234305,0.00071151868777659,-0.00071095911187404,0.000709352482936,-0.00062991664289879,0.00063531893980734,-0.00063624577764694,0.00062898531608703,-0.00070951907750375,0.00071079070438916,-0.00071168742481625,0.00070864780410529,-0.0011944816529639,0.001191880477573,-0.0011942416829274,0.0011921233719029,-0.0011923114197589,0.0011940481784443,-0.0011920698078614,0.0011942990361122,-0.0010854258387313,0.0010918529781175,-0.0010917963478879,0.0010854557831271,-0.0010920429366819,0.0010852159730085,-0.0010856816686207,0.0010915982213866,-0.00062915205459362,0.00063606652099953,0.74709022172595,133000,2964,0.0043325381087566,0.0072871175392483,0.0037376821626042,37.635411589011,0.00021628329271209,0.00021628329271209,0.00021628329271209,3102244.3345699,0.015477331003544
38391759,0.99728662758112,0.015940705052739,0.0047972050825186,0.0066296566834971,0.0045138432867234,-0.0010408803073103,0.0010416697283591,3.6201068867117e-06,-2.837943903218e-06,-6.1879559942009e-07,1.4469068348925e-06,-0.00031329667462085,0.00030987078618124,-0.00055816595094703,0.00056315618808321,-0.00056029518359469,0.00056103323040124,-0.00030902789670477,0.0003141212534835,-0.00031536822385414,0.00030778743720747,-0.00056015765349568,0.00056114589699691,-0.00056232610207548,0.00055896538069746,-0.0013783238647135,0.0013805762360001,-0.0013804845854642,0.0013784258374145,-0.0013776601325152,0.0013812702263316,-0.001379816149116,0.00137912187102,-0.0012178856464382,0.0012256801326762,-0.0012242265152591,0.0012193676450655,-0.0012185730260825,0.0012249788890026,-0.001224921397047,0.0012186659904888,-0.00030699074294517,0.00031615749779506,2.219630121178e-07,-1.8167719938533e-06,-7.8453326976438e-07,-7.6951053651068e-07,-0.0017595012149227,0.0017579425296161,-0.0016026973264851,0.0016018647079563,-0.0017611835302371,0.0017615508748018,-0.0017631051503828,0.001759544814018,-0.0017610677845306,0.0017601826503509,-0.0017610583493883,0.0017601926354515,-0.0017617279754384,0.0017595150998921,-0.0017617224732709,0.0017595161135905,-0.0016034262950373,0.001601186717998,-0.0016033984133065,0.0016011760268186,-0.0017611567631842,0.001761578930934,-0.0017631374318665,0.0017595190379046,-0.00160274052269,0.001601856061944,-3.4627189324374e-06,2.9987807482473e-06,-0.0008971640254221,0.00089671210048183,-2.1148627771086e-07,-2.3080398204048e-07,-0.00063362970302688,0.00062684272954749,-0.00070718224845614,0.00070888018599416,-0.00070933433175807,0.0007067293621404,-0.00062733557370117,0.00063317335878658,-0.00063361990126186,0.0006268854383334,-0.0007071692598413,0.0007088936914806,-0.00070932146731856,0.00070676564252625,-0.0011945620096662,0.0011919651018313,-0.0011945724719991,0.0011919577526351,-0.0011924071227739,0.0011941172844154,-0.0011924158654759,0.0011941175516934,-0.0010856700062183,0.0010915364325001,-0.0010919966795716,0.0010851865467144,-0.0010919896310598,0.0010851995059914,-0.0010856720778579,0.001091535067287,-0.00062732014620613,0.00063317267047383,0.75853624575025,133000,2964,0.0043332667937186,0.007298516851557,0.0037328662338849,37.196172703414,0.00021276938162731,0.00021276938162731,0.00021276938162731,3059998.4818895,0.015484768560578
38880000,0.99797196014982,0.015951728151656,0.0048006208587891,0.0066341934644916,0.004516913828375,-0.0010411292034176,0.0010419395765227,3.6180693592442e-06,-2.815909035399e-06,-6.2973509114722e-07,1.4826338864553e-06,-0.00030950963058072,0.00030616959279287,-0.00055580398381563,0.00056086087181474,-0.00055792235705109,0.00055875642301767,-0.00030529790569994,0.00031035728089287,-0.00031161761801683,0.00030402914786192,-0.00055783835539698,0.00055881911463656,-0.00056001393935162,0.00055662729154984,-0.0013797272453925,0.0013819755305971,-0.001381879398894,0.0013798337912567,-0.0013790495134138,0.0013826858073658,-0.0013811962871623,0.0013805445276111,-0.0012189696010316,0.0012267731087913,-0.0012252849435946,0.0012204839086275,-0.0012196701067189,0.0012260530484637,-0.0012259966870812,0.0012197675679263,-0.0003032255223675,0.00031242895315592,2.2793338468761e-07,-1.8572619086185e-06,-7.5128032330448e-07,-8.397739407405e-07,-0.0017622164338582,0.001760622184188,-0.001606301857875,0.0016053426463196,-0.0017659012862733,0.0017663109104092,-0.0017678429005363,0.0017642526509383,-0.0017621843039333,0.0017613113335224,-0.0017622104853528,0.0017612878780272,-0.001762859759933,0.0017606309334379,-0.0017628879272714,0.0017605999397446,-0.0016069488436969,0.0016047553386647,-0.0016070220651488,0.0016046486382537,-0.0017658948752037,0.0017663078622783,-0.0017679308507929,0.0017641823396156,-0.001606245796506,0.0016054358758253,-3.4343072420427e-06,3.0027619122561e-06,-0.00089650066395157,0.00089608121120005,-2.464648095688e-07,-1.6319904921178e-07,-0.00063033480510845,0.00062371712533073,-0.0007042788013509,0.00070609880379646,-0.00070642405835833,0.00070396328615959,-0.00062417218562617,0.00062991743068853,-0.00063043759945916,0.00062365267218643,-0.00070436271222197,0.00070601209855236,-0.00070650829199551,0.00070389397999516,-0.0011954645984868,0.0011928738538976,-0.0011954411805858,0.0011929009217523,-0.001193318308899,0.0011950189396908,-0.0011932929471282,0.0011950534969783,-0.0010858982792354,0.0010918090573262,-0.0010921990707748,0.0010854790082153,-0.0010922265517593,0.0010854574188032,-0.0010859382783482,0.0010917718774669,-0.00062405707245557,0.00063000989446529,0.76741574648456,133000,2964,0.0043343853507768,0.00730968599126,0.0037302072130264,37.193655329807,0.00021274924263845,0.00021274924263845,0.00021274924263845,3018006.6663159,0.015494571212881
