time,ASR_ext,ASR_strain,ASR_strain_xx,ASR_strain_yy,ASR_strain_zz,disp_x_101,disp_x_102,disp_x_103,disp_x_104,disp_x_105,disp_x_106,disp_x_p10_neg,disp_x_p10_pos,disp_x_p11_neg,disp_x_p11_pos,disp_x_p12_neg,disp_x_p12_pos,disp_x_p13_neg,disp_x_p13_pos,disp_x_p14_neg,disp_x_p14_pos,disp_x_p15_neg,disp_x_p15_pos,disp_x_p16_neg,disp_x_p16_pos,disp_x_p1_neg,disp_x_p1_pos,disp_x_p2_neg,disp_x_p2_pos,disp_x_p3_neg,disp_x_p3_pos,disp_x_p4_neg,disp_x_p4_pos,disp_x_p5_neg,disp_x_p5_pos,disp_x_p6_neg,disp_x_p6_pos,disp_x_p7_neg,disp_x_p7_pos,disp_x_p8_neg,disp_x_p8_pos,disp_x_p9_neg,disp_x_p9_pos,disp_y_101,disp_y_102,disp_y_103,disp_y_104,disp_y_105,disp_y_106,disp_y_p10_neg,disp_y_p10_pos,disp_y_p11_neg,disp_y_p11_pos,disp_y_p12_neg,disp_y_p12_pos,disp_y_p1_neg,disp_y_p1_pos,disp_y_p2_neg,disp_y_p2_pos,disp_y_p3_neg,disp_y_p3_pos,disp_y_p4_neg,disp_y_p4_pos,disp_y_p5_neg,disp_y_p5_pos,disp_y_p6_neg,disp_y_p6_pos,disp_y_p7_neg,disp_y_p7_pos,disp_y_p8_neg,disp_y_p8_pos,disp_y_p9_neg,disp_y_p9_pos,disp_z_101,disp_z_102,disp_z_103,disp_z_104,disp_z_105,disp_z_106,disp_z_p10_neg,disp_z_p10_pos,disp_z_p11_neg,disp_z_p11_pos,disp_z_p12_neg,disp_z_p12_pos,disp_z_p13_neg,disp_z_p13_pos,disp_z_p14_neg,disp_z_p14_pos,disp_z_p15_neg,disp_z_p15_pos,disp_z_p16_neg,disp_z_p16_pos,disp_z_p1_neg,disp_z_p1_pos,disp_z_p2_neg,disp_z_p2_pos,disp_z_p3_neg,disp_z_p3_pos,disp_z_p4_neg,disp_z_p4_pos,disp_z_p5_neg,disp_z_p5_pos,disp_z_p6_neg,disp_z_p6_pos,disp_z_p7_neg,disp_z_p7_pos,disp_z_p8_neg,disp_z_p8_pos,disp_z_p9_neg,disp_z_p9_pos,humidity,ndof,nelem,strain_xx,strain_yy,strain_zz,temp,thermal_strain_xx,thermal_strain_yy,thermal_strain_zz,vonmises,vstrain
14391759,0,0,0,0,0,0,0,0,0,0,0,0,0,0,0,0,0,0,0,0,0,0,0,0,0,0,0,0,0,0,0,0,0,0,0,0,0,0,0,0,0,0,0,0,0,0,0,0,0,0,0,0,0,0,0,0,0,0,0,0,0,0,0,0,0,0,0,0,0,0,0,0,0,0,0,0,0,0,0,0,0,0,0,0,0,0,0,0,0,0,0,0,0,0,0,0,0,0,0,0,0,0,0,0,0,0,0,0,0,0,0,0,0,0,0,0,0,0,0,0,0,0,0
15391759,0.10000914381362,0.0016820599252162,0.00056068664173875,0.00056068664173875,0.00056068664173875,-0.00015470296885594,0.00015477878832135,1.9145250116601e-07,-1.1598718736785e-07,-6.9490269360821e-08,1.4828610777813e-07,-0.00013034302209278,0.00013033547946585,-0.00013745519580948,0.00013785034860237,-0.000137558199707,0.00013774826857724,-0.00013025845137207,0.00013041924797299,-0.00013055679359605,0.00013011612040661,-0.00013766827026875,0.00013763431129586,-0.00013776973538473,0.00013753098281058,-0.00016533395539135,0.00016544003639224,-0.0001654357721447,0.00016533691120184,-0.00016526371393319,0.00016551245638406,-0.00016536631860467,0.00016541006004848,-0.00015980174132992,0.00016025076630874,-0.00016010280901791,0.00015994937119692,-0.00015987504049414,0.00016017835759731,-0.00016017391163354,0.00015987536773738,-0.0001300407208659,0.0001306359857142,7.0733087615807e-08,-1.4694240599127e-07,-2.5876468795838e-07,1.8564172204393e-07,-0.00017283540591103,0.00017276199791112,-0.00016777228826273,0.00016820811925648,-0.00017621431642873,0.00017620584211619,-0.00017642612058353,0.00017598846336607,-0.00017014360548643,0.00016999625565599,-0.00017000076777913,0.00017014548410683,-0.00017021332483462,0.00016992337187676,-0.00017007046091963,0.00017007256494577,-0.00016827478959531,0.00016769359153782,-0.00016784462990933,0.00016813468878429,-0.0001760677385415,0.00017635449264188,-0.0001762793206652,0.00017613714461166,-0.00016820268492621,0.00016776680875738,-2.2721585178704e-07,8.0156408676213e-08,-0.00015533899669667,0.00015519108301428,1.431646341667e-07,-2.9707115496654e-07,-0.00014558246348355,0.00014469433770255,-0.00014908563900634,0.00014860256012095,-0.00014918798274129,0.00014849981485279,-0.00014484531353365,0.00014543259946772,-0.00014514567966492,0.00014513213435605,-0.00014865278282829,0.0001490357874194,-0.00014875512294654,0.00014893357078594,-0.00016353033418801,0.00016342785490102,-0.00016367641102552,0.00016328153668702,-0.00016342790949842,0.00016353028853646,-0.00016357405598157,0.00016338407089985,-0.00015745831052211,0.00015746551218959,-0.00015775902948012,0.00015716396954735,-0.00015761148482242,0.00015731198571529,-0.00015731093280557,0.00015761315539323,-0.00014528126888445,0.00014499650826905,0.76481422726932,133000,2964,0.00064454934430466,0.0007197347520277,0.00064672881939264,27.138416622702,0.00013230733298161,0.00013230733298161,0.00013230733298161,1811400.4921953,0.0020130408503585
16391759,0.18802965821476,0.0031603234081656,0.00102320742705,0.0011135843303682,0.0010235316507474,-0.00025419939266157,0.00025427092863513,-2.9113151713168e-07,3.626313282587e-07,-3.5899297703199e-08,1.092003137841e-07,-0.00019993763174783,0.00020079441466624,-0.00021705572089118,0.0002170529892158,-0.00021683774076744,0.00021727092508925,-0.00020072169414276,0.0002000089077301,-0.00020008085197833,0.00020064879704584,-0.00021719486725579,0.00021690739231904,-0.00021697798774964,0.00021712651152029,-0.00028023427006733,0.00028004042264389,-0.00028001657078065,0.00028025871500175,-0.00028018929746588,0.00028008925572216,-0.00027997136683378,0.00028030717773731,-0.00026993824294909,0.00026941786837248,-0.00026929827633171,0.00027005784041721,-0.00026998628413238,0.00026936891125137,-0.0002693460629221,0.0002700093949679,-0.00020057714809935,0.00020015470428133,5.6566017205326e-08,-8.6507380764259e-08,6.8756932656492e-08,-9.3150914333446e-08,-0.00030398105667219,0.00030395460390908,-0.0002917144997092,0.00029157988116805,-0.00030811947942134,0.00030828388824055,-0.00030825957636973,0.00030814243904086,-0.00030049673944712,0.00030056962478329,-0.00030054694200675,0.00030051581839472,-0.00030054346314704,0.00030052222028005,-0.00030059346424227,0.00030046824284414,-0.00029160374256142,0.00029169146720688,-0.00029176276784528,0.00029153078523297,-0.00030817181714558,0.00030822997359215,-0.0003083119037823,0.00030808806587193,-0.00029155588234778,0.00029173990239331,3.1847785077023e-07,-3.3528322911594e-07,-0.00025374966151384,0.0002537325855581,-8.9485612859684e-08,7.2911002159642e-08,-0.00023473810149402,0.00023552025250446,-0.00024318112521049,0.00024310681155336,-0.00024296304469693,0.00024332374806835,-0.00023553919834904,0.00023472307510073,-0.00023489973811298,0.00023536557132869,-0.00024334524445565,0.00024294740191632,-0.00024312685192673,0.00024316537488345,-0.00027385418591329,0.00027400090317554,-0.00027379932290639,0.00027405408084715,-0.00027407185300066,0.00027378257865413,-0.00027401728789232,0.00027383626462972,-0.00026276001615724,0.00026215706403341,-0.00026211974171127,0.00026279664980231,-0.00026217439380936,0.00026274433345094,-0.00026281396446573,0.00026210307914079,-0.00023537841670426,0.00023488337878738,0.78819745793409,133000,2964,0.0010587758115669,0.001265722117124,0.0010567029030827,24.452698993392,0.00011082159194714,0.00011082159194714,0.00011082159194714,2562704.5586049,0.0033869385773239
17391759,0.26654656653033,0.0044176883862947,0.0014064232056345,0.001608037839236,0.0014032273414243,-0.00033573992174937,0.00033608419845303,-2.9531919157689e-07,6.3743734041442e-07,-3.0088189563374e-07,6.5848160197918e-07,-0.0002399633692791,0.00024218364662208,-0.00027263018311249,0.00027361751253465,-0.00027231664123947,0.00027392835695517,-0.000241824220363,0.00024030711917841,-0.0002409196545276,0.00024122275998379,-0.00027355824794538,0.00027266026449335,-0.00027325191547847,0.00027297280975492,-0.00038022518727319,0.00037994097027651,-0.00037991611507754,0.00038025367620676,-0.00037991964030424,0.0003802627763065,-0.0003796083539995,0.00038057368783024,-0.00036079907696864,0.00036054534845571,-0.00035988656849141,0.00036146029421109,-0.00036111565047723,0.00036022171691376,-0.00036020816796171,0.00036114019730556,-0.00024088128256971,0.00024126863548806,3.0330726192533e-07,-6.5281673646667e-07,4.0485158728857e-07,-7.3610677292055e-07,-0.00042263208215821,0.0004222975264199,-0.00040173820366763,0.00040061229666015,-0.00042608355897407,0.00042705450939851,-0.00042701058342493,0.00042610213739758,-0.00041903917047389,0.0004193969329412,-0.00041940836632003,0.00041901491997681,-0.00041934509416967,0.00041907729499273,-0.00041971463550409,0.00041869471272948,-0.00040095000449635,0.00040142254175299,-0.00040205798343469,0.00040028913353028,-0.00042645818669241,0.00042667541341036,-0.0004273885043904,0.00042571940820253,-0.00040063260485865,0.00040174312979765,6.2454415988294e-07,-3.0835636838737e-07,-0.00033296086912481,0.00033327913131572,-3.9977838006416e-07,7.3231885567147e-07,-0.0003006976703682,0.00030305423423469,-0.00031316789220224,0.00031430173795859,-0.00031285727230952,0.00031461088744582,-0.00030273808124999,0.000301025017594,-0.00030182397657919,0.00030193969815215,-0.00031428864923952,0.00031318942788386,-0.00031397737294273,0.00031350183915622,-0.00036800024823763,0.00036824965997486,-0.00036762306597104,0.00036862523276789,-0.00036831147187524,0.00036793876666026,-0.00036793446524888,0.00036831483089944,-0.00034865063086965,0.00034843079910246,-0.00034773332492734,0.00034934031702976,-0.00034811377687226,0.00034896186187183,-0.0003490300078996,0.00034805125252581,-0.00030161433174415,0.00030214613101516,0.75884216176834,133000,2964,0.0013987229928503,0.0017586911436402,0.0013870611925113,22.118437698534,9.2147501588268e-05,9.2147501588268e-05,9.2147501588268e-05,3162912.432661,0.0045548555311143
18391759,0.32308155176096,0.0052881177173155,0.0016678355743582,0.00196351526155,0.0016567668814074,-0.00038594286866528,0.00038648155619745,-1.8727334414469e-07,7.2283198056584e-07,-4.0574781416781e-07,9.6386865704564e-07,-0.00026030046420551,0.00026310505724824,-0.00030421171100496,0.00030581178806093,-0.00030390486784661,0.0003061100511879,-0.00026254242542099,0.00026083803086377,-0.00026166477209666,0.00026172877684829,-0.00030553179234703,0.00030444185665889,-0.00030523536499564,0.00030474457294835,-0.00044479114652472,0.00044457376683334,-0.00044449056347019,0.00044487921219885,-0.0004443559724849,0.00044503337830179,-0.00044405210444134,0.00044533613985574,-0.00041612086572981,0.00041621693638433,-0.00041523105986302,0.00041711253956632,-0.0004165715136674,0.00041575522767674,-0.00041569140274289,0.00041665606747889,-0.00026119867533114,0.00026221070617539,3.6613947646388e-07,-9.9769710377283e-07,5.7712780477247e-07,-1.1801649530558e-06,-0.00050078015593067,0.00050017222208191,-0.0004705509610001,0.00046868457319189,-0.00049862513258034,0.00049991831441951,-0.00049994611634621,0.00049855915542505,-0.00050080997681633,0.00050123587223598,-0.0005013802357106,0.00050064622408074,-0.00050124944184612,0.00050078008932449,-0.00050181947575686,0.00050019123420645,-0.00046930395744617,0.00046997173028307,-0.00047100509003329,0.00046822709448511,-0.00049920270740553,0.00049933243812893,-0.00050053087000641,0.00049797455037486,-0.0004688479231021,0.00047043166780883,7.4514879319163e-07,-1.6519591243978e-07,-0.00038014521812281,0.00038072932578175,-5.6712657193291e-07,1.1750637684315e-06,-0.00033680586623409,0.00034001737796747,-0.0003538162373635,0.00035583027735994,-0.0003535106056063,0.00035613441393202,-0.00033942958478225,0.00033740832790026,-0.00033854261067458,0.00033829671855048,-0.00035553569512971,0.00035412214444941,-0.00035523449446173,0.00035442493706917,-0.00042706132615057,0.00042736356828525,-0.00042648069618526,0.00042794160165212,-0.00042736401224008,0.0004270596808701,-0.0004267844797321,0.00042763854976337,-0.00040042795869306,0.00040069622028748,-0.00039952980449248,0.0004015831171653,-0.00040011744780421,0.00040099905541746,-0.00040101139107953,0.00040011062803608,-0.00033770980834118,0.00033912780204688,0.73909361290945,133000,2964,0.0016080359864466,0.0020830800326556,0.001583943954894,17.510852860949,5.5286822887594e-05,5.5286822887594e-05,5.5286822887594e-05,3544632.9315588,0.0052890617619768
19391759,0.38141440850779,0.0062301962366188,0.0019507820242059,0.002348612354993,0.0019308018574199,-0.00044923084275272,0.00044963487825213,-7.0653140510624e-07,1.1086493168299e-06,-2.9028900242657e-07,7.067582937686e-07,-0.00029091597806698,0.0002940959440975,-0.00035004947468659,0.00035083879457063,-0.00034944191913382,0.00035144051651615,-0.00029367472845101,0.00029131629040413,-0.00029190674267744,0.00029309298772348,-0.00035100669582353,0.00034984085801701,-0.00035040632550862,0.0003504451931817,-0.00052331016167857,0.00052278016593348,-0.00052270711528443,0.00052338685407813,-0.00052299435397161,0.000523116058717,-0.00052238866315121,0.00052372050488419,-0.00048853609257821,0.00048749083945167,-0.00048675936375545,0.00048927072381033,-0.00048886363497386,0.00048715337043507,-0.00048709230090262,0.00048893605367217,-0.000292698680279,0.00029231675724557,1.7239750959279e-07,-8.1539621339386e-07,4.7894121161331e-07,-1.0972663190431e-06,-0.00059590443700997,0.00059528164899485,-0.00055675164457607,0.00055492335969041,-0.00059010486564775,0.0005909537026423,-0.00059106354953573,0.00058997604443806,-0.00059898347779503,0.00059921445533411,-0.0005995001385353,0.00059868641887404,-0.00059930516187218,0.00059888624021385,-0.00059982163109869,0.00059835870613594,-0.00055555242517601,0.00055615113646879,-0.00055708329477862,0.0005545913946152,-0.00059062540826111,0.00059042881286527,-0.00059158844410649,0.00058945136271547,-0.00055522008268961,0.00055648396475643,1.1629758678103e-06,-6.52440295983e-07,-0.000439929711488,0.00044044320469454,-5.1514670022204e-07,1.0478265605465e-06,-0.00038944629563817,0.0003932897770155,-0.00041024416220031,0.00041170498186261,-0.00040963724181523,0.00041230907384131,-0.00039277549110066,0.00038997191089374,-0.00039100580739612,0.00039175124156397,-0.00041178327117999,0.00041017049124168,-0.0004111810509845,0.00041077650862652,-0.00049858867531009,0.0004991829305055,-0.00049806763000556,0.00049970195768237,-0.00049919248525453,0.00049857643857844,-0.00049867306462703,0.0004990969964946,-0.00046819216276532,0.00046744634797029,-0.00046641003028297,0.00046922080197705,-0.00046693878086066,0.00046869982485573,-0.00046871549817558,0.00046692122133188,-0.00039123386309783,0.00039151750535245,0.77930570633169,133000,2964,0.0018710628274385,0.0024784442545909,0.0018325055311023,17.48021270567,5.5041701645359e-05,5.5041701645359e-05,5.5041701645359e-05,3830483.6505758,0.0062012481269407
20391759,0.44560593310593,0.0072699975631252,0.0022572110176655,0.0027882544612051,0.0022245320842547,-0.00051871083944589,0.00051904700508148,-1.0213310374501e-06,1.3561443803468e-06,-2.3903538633487e-07,5.8485683060758e-07,-0.00031423059539321,0.00031771967257348,-0.00039175832070438,0.00039211957796682,-0.00039096383458113,0.00039290881684258,-0.00031736995023613,0.00031456404649108,-0.00031505005214074,0.00031689041436322,-0.00039254803193206,0.0003912956148984,-0.00039175945260654,0.00039208671300025,-0.00061314958678416,0.00061242133736227,-0.0006123584639569,0.00061321500059671,-0.00061288878881536,0.00061269908825875,-0.0006120953083159,0.00061349071550963,-0.00057081190793875,0.0005690913516912,-0.00056848379236092,0.00057142112413807,-0.00057108208924461,0.00056881183967835,-0.00056875881895349,0.00057114424527318,-0.00031656342436799,0.00031539044160454,9.3876475377381e-08,-7.195225828065e-07,5.2785979536265e-07,-1.1320998287391e-06,-0.00070954908771555,0.0007089413081375,-0.00066202138176486,0.00066006666648311,-0.00070472976692394,0.00070545047198022,-0.00070551888904013,0.00070464836921305,-0.00071261679771955,0.00071283232578011,-0.00071316086424531,0.00071227653385536,-0.00071288079561908,0.0007125627167609,-0.0007134246584574,0.00071200733439292,-0.00066068122873719,0.00066143391760485,-0.00066229539327377,0.00065979329100104,-0.00070527878940182,0.00070489761541722,-0.00070607166193071,0.00070409551109426,-0.00066040672358463,0.00066170801995004,1.451541477305e-06,-9.2624739574042e-07,-0.00050415774528117,0.00050468556475698,-5.4995962741034e-07,1.0968937455955e-06,-0.00044064920069286,0.00044513885093993,-0.0004651434756545,0.00046651323831106,-0.00046434961114879,0.00046730439880807,-0.00044460992125113,0.00044118724692917,-0.00044229079467036,0.00044351754020892,-0.00046676291164296,0.00046489483078448,-0.00046597397297868,0.00046568877118784,-0.00057955435210206,0.00058032254294217,-0.00057900608424678,0.00058086990562329,-0.00058034544130286,0.00057952822908646,-0.0005797986321688,0.00058007709024772,-0.00054373536828652,0.00054248199890386,-0.00054140326825022,0.00054480790650752,-0.00054196011266767,0.00054425886652909,-0.00054428711536799,0.0005419287019964,-0.00044298583465647,0.00044281695150191,0.78427550874261,133000,2964,0.0021599588504045,0.0029506322709896,0.0020996855828206,18.602016206174,6.4016129649391e-05,6.4016129649391e-05,6.4016129649391e-05,4020753.9662466,0.0072364616659881
21391759,0.49563946595306,0.0080504856209132,0.0024845709069156,0.0031287487156017,0.002437165998396,-0.00056280601590351,0.00056305009235259,-1.3720349165211e-06,1.6148632493744e-06,-1.5956373838853e-07,4.1009465305338e-07,-0.00032308311229532,0.00032682065778507,-0.00041316800580709,0.00041298385164852,-0.0004121722607787,0.00041397446486814,-0.00032656745310727,0.00032332513006171,-0.00032364999522268,0.00032624791559397,-0.00041371157137985,0.00041241156509936,-0.00041271936724511,0.00041340666106447,-0.00067354122266219,0.00067260153362165,-0.00067254651729748,0.00067359818725665,-0.00067336126549888,0.00067279407246864,-0.00067236449038027,0.00067378878597273,-0.00062307501052435,0.00062057995776955,-0.00062014901701089,0.00062350681631521,-0.00062326097828119,0.00062038747859283,-0.00062033978176754,0.00062331522494694,-0.00032601179410275,0.00032389683732639,7.1256771652627e-09,-5.5187429790561e-07,5.7116259693412e-07,-1.0983725298334e-06,-0.00078821040750235,0.00078768037240386,-0.00073228689651578,0.00073031247165702,-0.00078112851437681,0.00078168245006244,-0.00078167027272268,0.00078113102402502,-0.00079360275651034,0.00079381523799059,-0.0007941503362286,0.00079325606698603,-0.00079378443630091,0.00079363024127313,-0.00079433125819701,0.00079307195533468,-0.0007308506224838,0.00073177394662402,-0.00073247455692692,0.00073012633763546,-0.00078168156652393,0.00078112446356117,-0.00078222458249593,0.00078057714555283,-0.00073065870055516,0.00073196313961457,1.7562945969952e-06,-1.2310084094078e-06,-0.00054291502468103,0.00054344253815675,-5.5541118033633e-07,1.1013648269052e-06,-0.00046676903041452,0.00047186619560275,-0.00049520692367233,0.00049638133518165,-0.00049420994592509,0.00049737714363861,-0.00047133338646774,0.00046730909273171,-0.00046842329944937,0.00047023155277102,-0.00049683467123833,0.00049475417962452,-0.00049584483051682,0.00049574936736943,-0.00063201001636494,0.00063297775450187,-0.00063145861260589,0.00063352900490266,-0.00063300424525463,0.00063198040544628,-0.0006324545191204,0.00063253265647748,-0.00059078297932706,0.00058893517074773,-0.00058785245108993,0.00059185872861803,-0.00058841296540541,0.00059130531977241,-0.00059133626000654,0.00058837887445908,-0.00046970516019634,0.00046894450076269,0.75707132511058,133000,2964,0.0023431935098209,0.0032774472510102,0.0022608813345814,15.31634891674,3.7730791333921e-05,3.7730791333921e-05,3.7730791333921e-05,4154753.0816686,0.0079128305846026
22391759,0.5429108058785,0.0087893641356968,0.0027005028363231,0.0034516242742482,0.0026372370251255,-0.00060927554234891,0.00060934912065023,-1.6560453869669e-06,1.7281334988932e-06,-1.6409900203335e-08,9.1367557065058e-08,-0.00033801427942201,0.0003415017695139,-0.00043953339413509,0.00043859656483699,-0.00043840715042551,0.00043971008767023,-0.00034143074534727,0.0003380826977636,-0.00033812152882884,0.00034139996976194,-0.00043963041619836,0.0004384760319099,-0.0004385026128146,0.0004396048901761,-0.00073518253888129,0.00073409256259524,-0.00073405623939646,0.00073522271472371,-0.00073515035491465,0.00073413112275578,-0.00073402115084109,0.00073525817930681,-0.00067695969513705,0.00067374759602842,-0.00067364728271695,0.00067706917460387,-0.00067699057687148,0.00067371144143564,-0.00067368661071209,0.00067703482254902,-0.00034132940591514,0.00033820112058484,-1.383111942149e-07,-2.3652836676509e-07,9.512111638987e-07,-1.3158604388061e-06,-0.00086685993691527,0.00086649372094018,-0.00080256785433472,0.00080001119847849,-0.0008559379215214,0.00085641136005903,-0.00085603430396286,0.00085630665067409,-0.00087562184028427,0.00087604231100102,-0.00087636136906388,0.00087528121853923,-0.00087565558927452,0.00087600993675671,-0.00087639312141376,0.0008752519090629,-0.00080040106239578,0.00080222754261493,-0.00080259910568904,0.00079998312811919,-0.00085669432204204,0.00085564999836783,-0.00085678447451515,0.00085556353255405,-0.00080036006459888,0.000802260902604,2.0573484981662e-06,-1.3274620776292e-06,-0.00058374999690066,0.00058448460057858,-7.43630641427e-07,1.5061455746789e-06,-0.0004967653740678,0.00050305296240036,-0.00052867348397629,0.00053051472009161,-0.00052754581188886,0.00053164668408853,-0.00050230348861616,0.0004975185908833,-0.00049900924451455,0.00050082280365216,-0.00053088383126608,0.00052830593360047,-0.00052976372610717,0.0005294301685979,-0.00068554915401439,0.0006866573316691,-0.0006848015646183,0.00068740621419235,-0.00068667529832645,0.00068552766428587,-0.00068593023887277,0.00068627647001832,-0.00063966108318562,0.00063782226034764,-0.00063633685593372,0.00064113535196563,-0.00063709706371042,0.0006403805830868,-0.00064041029954185,0.00063706668516724,-0.00050009460259042,0.00049973612391321,0.7605715714274,133000,2964,0.0025361037374761,0.0036042664851969,0.002431124513762,14.811611009255,3.3692888074042e-05,3.3692888074042e-05,3.3692888074042e-05,4339934.6696735,0.008608539480047
23391759,0.5911690919009,0.0095320337587516,0.0029172946841535,0.0037782330636836,0.0028365060109144,-0.00065712007481405,0.00065731298187695,-1.8790867265348e-06,2.0704042506163e-06,-1.3980162772718e-07,3.3801296308991e-07,-0.00034836035525709,0.0003528948825076,-0.00046308054730094,0.00046243579003009,-0.0004617643523307,0.00046374419984779,-0.00035269735743575,0.00034855093701649,-0.00034883720482504,0.00035241850557663,-0.00046353830287057,0.00046195518465612,-0.00046222451243191,0.00046327102766573,-0.0008005650583025,0.00079928325703799,-0.00079924971657071,0.0008006013876408,-0.00080041355799566,0.00079944456328543,-0.00079909577086458,0.00080076009460829,-0.00073327171564536,0.00072975154880482,-0.00072940445873846,0.00073362267539985,-0.00073342694313078,0.00072958961130182,-0.00072956521975586,0.00073346352219955,-0.00035223022053481,0.00034903292596501,8.5815072931222e-09,-4.6005569752521e-07,8.8440307067949e-07,-1.3225694743802e-06,-0.00095122257307437,0.00095078314651092,-0.00087736068460205,0.00087491617283883,-0.00093773101591163,0.00093846995143513,-0.00093818520932835,0.00093800476820719,-0.0009623821489671,0.00096283150665504,-0.00096310409870722,0.00096209179511426,-0.00096253207606172,0.00096267542566846,-0.00096325289306259,0.00096193729655405,-0.00087537216754211,0.00087694255755483,-0.00087751653747172,0.00087476149165864,-0.00093846403175203,0.00093773231616846,-0.0009389175350963,0.00093727386555528,-0.00087521140870879,0.0008771002467162,2.3320319635442e-06,-1.6182301460009e-06,-0.00062531809596115,0.00062603561811147,-7.2346252177205e-07,1.4669296532442e-06,-0.00052505000254665,0.00053180829839851,-0.00056143559268637,0.00056301112811124,-0.00056011989294847,0.00056432835589629,-0.00053108337967779,0.00052578106766215,-0.00052723033034057,0.00052964237469275,-0.00056358780319848,0.00056085988380851,-0.00056227728513373,0.00056217422976285,-0.00074177773386556,0.00074307734363305,-0.00074104942615284,0.00074380631395646,-0.00074309339118807,0.00074175924386625,-0.00074236655700122,0.00074248856331309,-0.00069025222559516,0.00068782732865083,-0.00068637802597565,0.00069169405415536,-0.00068711736960842,0.00069096106041648,-0.00069098523751904,0.00068709204219659,-0.00052892527015192,0.000527944592886,0.75126456025929,133000,2964,0.0027353285545034,0.0039541789639491,0.0026039409531856,15.634064780618,4.0272518244947e-05,4.0272518244947e-05,4.0272518244947e-05,4453798.4776262,0.0093370252210761
24391759,0.64395619467117,0.010353460432238,0.0031561937013894,0.0041427070096836,0.003054559721165,-0.00071181242871416,0.00071196669496912,-2.0882727944153e-06,2.2414192072424e-06,-9.581466625403e-08,2.5316278523207e-07,-0.00036184675933424,0.00036658232975945,-0.0004912909946712,0.00049035556685215,-0.00048984619080472,0.00049178261646896,-0.0003664285017767,0.00036200485436504,-0.00036220686306279,0.0003662376561301,-0.00049161758801384,0.00048999599441482,-0.00049018102020814,0.00049143506295873,-0.00087475850128924,0.00087335403705723,-0.00087331744129202,0.00087480026367964,-0.00087464858513317,0.00087347161785315,-0.00087320397412114,0.00087491504312305,-0.0007979745599126,0.00079399710766473,-0.00079373508233467,0.00079824715598355,-0.00079808754379334,0.00079388419133969,-0.00079385629666114,0.00079813425694764,-0.0003660994260289,0.00036236458808603,-2.7344048394032e-08,-3.6757243563749e-07,1.410844143995e-06,-1.7922726068373e-06,-0.001047564658051,0.0010471821462128,-0.00096371046462169,0.00096030131821077,-0.0010310486780717,0.0010320468417732,-0.0010313785054033,0.0010317059461278,-0.0010614580443132,0.0010622511642228,-0.0010625020182444,0.0010611755363452,-0.0010615666469278,0.0010621377431129,-0.0010626082506116,0.0010610645733576,-0.00096071212773265,0.00096335988252311,-0.00096381767188985,0.00096018896142925,-0.0010321096439796,0.0010309759732862,-0.0010324430561667,0.0010306503647952,-0.00096059062727615,0.00096347674140946,2.7201417434535e-06,-1.6109956589676e-06,-0.00067213501001475,0.00067324955825608,-1.0131709137248e-06,2.1665971270528e-06,-0.00055755375888928,0.00056606438366741,-0.00059841904532786,0.00060124741961567,-0.00059697388080981,0.00060269116340462,-0.00056492978328968,0.00055868298586369,-0.00056071040324836,0.00056291015929862,-0.00060154259019588,0.00059812767077889,-0.00060010972788623,0.00059956306204453,-0.00080516307702744,0.0008066529577706,-0.00080410467626941,0.00080771081190065,-0.00080660465887891,0.00080520806058691,-0.00080554895128269,0.00080626530879438,-0.0007478432640504,0.0007457671299188,-0.00074359367074964,0.00075001019482518,-0.0007446645097529,0.00074894271885094,-0.00074890250842894,0.00074469948387007,-0.00056181022274479,0.00056182740751196,0.76118278556622,133000,2964,0.0029626755107812,0.0043538953419576,0.0027994252715743,17.855805220834,5.8046441766671e-05,5.8046441766671e-05,5.8046441766671e-05,4574666.4031173,0.010167657055735
25391759,0.69868986025444,0.01122603855833,0.0034083514502639,0.0045340949472839,0.0032835921607823,-0.00076783032430887,0.0007680155894282,-1.8286095799254e-06,2.0123217649068e-06,-1.2439261400811e-07,3.1432830199534e-07,-0.00037015250932426,0.00037453238156637,-0.00051603883296165,0.00051538501071314,-0.00051475869684742,0.00051665447017643,-0.00037434536649939,0.00037033881156598,-0.00037059516166213,0.00037409662158798,-0.00051645867669077,0.00051494283024551,-0.00051518210477333,0.00051622030446562,-0.00095259825010447,0.00095135774779582,-0.00095131896758977,0.00095263986627971,-0.00095245872147065,0.00095150519086546,-0.00095117691975211,0.00095278486805278,-0.00086651906098271,0.00086308326164228,-0.0008627575327816,0.00086684998313411,-0.0008666618132559,0.00086293635175837,-0.0008629060263085,0.0008667049444284,-0.00037391949055306,0.0003707829969517,8.006857128452e-09,-4.2196676812371e-07,1.1814565204096e-06,-1.5830712483021e-06,-0.0011521859475073,0.0011517837464708,-0.0010584859938593,0.0010555177509984,-0.0011361270215798,0.0011370507953357,-0.0011365438245081,0.0011366228315278,-0.0011667436209987,0.0011674031069501,-0.0011676499499089,0.0011664765139912,-0.00116688091025,0.0011672595085976,-0.0011677854280512,0.0011663346624915,-0.0010559398278989,0.0010581062908601,-0.0010586259426824,0.0010553755831651,-0.0011370449930618,0.0011361272504521,-0.0011374623249585,0.0011357083953575,-0.0010557907124693,0.0010582519736352,2.3819873518111e-06,-1.46019948436e-06,-0.00071899534296253,0.00071992136677671,-8.9343525594377e-07,1.8516299254845e-06,-0.00058928762579707,0.00059669686466157,-0.00063408388604921,0.00063645345428958,-0.00063280359701946,0.00063773416838333,-0.00059575963014817,0.00059022715855769,-0.00059201500632863,0.00059397811137158,-0.00063677995458191,0.00063375930469425,-0.00063550751159142,0.00063503425203256,-0.00087095963121517,0.00087224497885074,-0.00087004619952512,0.00087315886167617,-0.00087223912427326,0.00087096305499278,-0.00087132748208073,0.00087187676359221,-0.00080786000181539,0.00080593342251345,-0.0008040908101311,0.00080969585322628,-0.00080501656372947,0.00080877564996897,-0.00080877811114517,0.00080501186627072,-0.00059305857331461,0.00059293940220249,0.78099361352918,133000,2964,0.0031956884326382,0.0047875902545396,0.002993876283206,19.837941227764,7.3903529822113e-05,7.3903529822113e-05,7.3903529822113e-05,4579638.7332536,0.011038026827928
26391759,0.74891299779874,0.012045448049954,0.0036440455249194,0.0049056356105836,0.0034957669144505,-0.00081665329561383,0.00081721532956813,-1.7861537379908e-06,2.3449827949768e-06,-4.7232695544367e-07,1.0529364621081e-06,-0.00037036196006819,0.00037648826647286,-0.00053275107771065,0.00053345786383481,-0.00053137330599798,0.00053482192866695,-0.00037591642308344,0.00037092684122909,-0.0003718839932997,0.00037496590852981,-0.00053423246219116,0.00053193819916043,-0.00053285799608231,0.00053330923715754,-0.0010230885786849,0.0010217682546091,-0.0010217127572907,0.0010231470965428,-0.0010226001778155,0.0010222775660677,-0.0010212215992926,0.0010236546183065,-0.00092871443938946,0.00092572964046555,-0.00092467079330901,0.00092978519805372,-0.00092921741395799,0.00092521947405434,-0.00092518064587262,0.00092927506199587,-0.00037441360526364,0.00037245422289041,3.6594242377553e-07,-1.1483516851134e-06,1.0489311442065e-06,-1.8051227679545e-06,-0.0012502366168393,0.0012494788938872,-0.0011487335842005,0.0011456853755037,-0.0012364557531431,0.0012381131755012,-0.0012379281448978,0.0012366043820322,-0.0012632769000368,0.001263968605926,-0.0012642121655938,0.0012630117935459,-0.001263761206789,0.0012634627997101,-0.0012646944494861,0.0012625077957296,-0.0011464601797929,0.0011479991995531,-0.0011492303477639,0.0011451786927585,-0.001237405067261,0.0012371608437324,-0.0012388786022697,0.0012356628305207,-0.0011459527397655,0.0011485100830583,2.5376569662006e-06,-1.5949807192617e-06,-0.00075789588169025,0.00075884420482077,-9.2636044076519e-07,1.9083770034368e-06,-0.00061162503611141,0.00061942870626107,-0.00066057709694609,0.00066296273230354,-0.00065919839564091,0.0006643387929846,-0.00061847081641601,0.00061258931700107,-0.00061444411791973,0.00061662027788044,-0.00066336131622861,0.00066018247075951,-0.00066199251905423,0.0006615516326165,-0.00092890349200731,0.00093027792696598,-0.00092795934234984,0.0009312214897126,-0.00093027970554934,0.000928899316836,-0.00092933800357963,0.00092984258326313,-0.00086092216321081,0.00085875982850171,-0.00085686606118867,0.00086280663001866,-0.00085782430117363,0.00086185658728508,-0.00086187005771632,0.00085780874153474,-0.00061568621455341,0.00061538958660719,0.79883072440687,133000,2964,0.0033995282257315,0.0051931530356662,0.0031556923614665,20.411674907863,7.8493399262904e-05,7.8493399262904e-05,7.8493399262904e-05,4491656.8845191,0.011818150012371
27391759,0.79700441409516,0.012800876840907,0.0038628595238549,0.0052485045710113,0.003689512746041,-0.00086270260854793,0.0008631465420119,-2.0019995394883e-06,2.4438416842506e-06,-3.8037057525756e-07,8.3871907253755e-07,-0.0003680359726564,0.00037405380184885,-0.00054618351907636,0.00054635750921675,-0.00054469607066101,0.00054783611782566,-0.00037360333858467,0.00036849722233143,-0.00036926505806242,0.00037281389783613,-0.00054736311507076,0.00054514414001693,-0.00054587982795833,0.00054660793022609,-0.001091159004235,0.0010897173465173,-0.0010896814547504,0.0010912044094506,-0.0010907691695742,0.0010901231869984,-0.0010892875280657,0.001091608859972,-0.00098683627208481,0.00098331768870497,-0.0009824844001107,0.00098768682517713,-0.00098722639812021,0.00098291308431549,-0.0009828959638263,0.00098729154394717,-0.00037240341423897,0.00036971496782178,2.1042582485376e-07,-9.9737138717795e-07,9.9485777361108e-07,-1.7575816760308e-06,-0.0013444449379537,0.0013436828318278,-0.001233856194944,0.0012307963967838,-0.0013323273044997,0.0013336480226661,-0.0013335036642034,0.0013324503237507,-0.0013567162033802,0.0013572706670262,-0.0013576136665852,0.0013563427592542,-0.0013571011255938,0.0013568701238909,-0.001357999248582,0.0013559436581292,-0.0012315694352416,0.0012331122541309,-0.0012342369881052,0.001230393630201,-0.0013332489910874,0.001332730677585,-0.0013344336713288,0.0013315304194234,-0.0012311648603467,0.0012335180410204,2.658083476658e-06,-1.7895003972175e-06,-0.00079273469620873,0.00079361325539781,-9.1198764874228e-07,1.8209269965276e-06,-0.00062702066950414,0.00063491758517603,-0.00068137356735319,0.00068347901510405,-0.00067988822182764,0.00068496069530972,-0.00063403446100912,0.00062786454393699,-0.00062970670322189,0.00063219886309181,-0.00068405932011634,0.00068080684054626,-0.00068258671345603,0.00068226828919598,-0.00098365661517509,0.00098510385305258,-0.00098274621293146,0.00098601398067179,-0.00098513751172266,0.00098361872862776,-0.00098422958422769,0.00098452926774806,-0.00090926546501643,0.00090669416471709,-0.00090489927863606,0.0009110508012744,-0.00090583371453874,0.00091013006765505,-0.00091018082721657,0.00090576584290058,-0.00063138156344249,0.00063058864256505,0.76756559107762,133000,2964,0.0035908209811672,0.0055833395735307,0.0033004523799452,22.213303638194,9.2906429105555e-05,9.2906429105555e-05,9.2906429105555e-05,4393555.8878376,0.012553352869011
28391759,0.83978624924561,0.013505388463207,0.0040678024917358,0.0055664803852916,0.0038711055861794,-0.00090465546826734,0.00090519232419443,-2.2161643908655e-06,2.7476604882933e-06,-4.6578448365327e-07,1.0195962336696e-06,-0.00037123004613437,0.00037813105189858,-0.00056214510153439,0.00056249688986137,-0.00056047574473875,0.00056415831544671,-0.00037758324008265,0.00037178666567029,-0.00037273580196459,0.00037661083016242,-0.00056358431068853,0.00056103023796344,-0.00056192293819101,0.00056265950998685,-0.0011516666832381,0.001150061405884,-0.0011500166948874,0.0011517192130136,-0.0011511930441449,0.0011505549675229,-0.0011495388936557,0.0011522118885088,-0.0010401033570701,0.0010362590017975,-0.0010352379425732,0.0010411205264812,-0.0010405808842133,0.0010357549460826,-0.0010357413539906,0.0010406350079058,-0.00037613827449205,0.00037326806653492,3.0455349752591e-07,-1.167919176303e-06,5.8547634646641e-07,-1.420599095467e-06,-0.0014286218355651,0.0014277869386934,-0.0013097009649719,0.0013073946229234,-0.0014161854418869,0.0014174436511696,-0.0014176167115071,0.0014159905236545,-0.0014414058502964,0.0014417263856149,-0.0014420583852733,0.0014410490300402,-0.0014418744655516,0.0014412369625141,-0.0014425315657432,0.0014405627031225,-0.0013082212169795,0.0013088722677925,-0.0013101825967787,0.0013069034635733,-0.0014168647880003,0.0014167861992406,-0.0014183075004056,0.0014153084056431,-0.0013077261121083,0.0013093595851621,2.7994823151829e-06,-2.1666904077723e-06,-0.00082415875240219,0.0008247975497579,-6.7087549185694e-07,1.3233296848752e-06,-0.0006454721101246,0.00065287846175156,-0.00070331227042139,0.00070426873805898,-0.0007016648911984,0.00070592059659902,-0.00065225682888104,0.00064604016776702,-0.00064741608754646,0.00065089677973326,-0.00070527591863085,0.000702314520478,-0.0007036358324291,0.00070395946055899,-0.0010312102012623,0.0010328417652529,-0.0010305438217542,0.0010335052203384,-0.0010328642264206,0.0010311825782534,-0.0010322018219413,0.001031847901801,-0.0009542735226856,0.00095072518974303,-0.00094939634728406,0.0009555802083995,-0.00095008784932262,0.00095490419980576,-0.00095495590595036,0.00095004500657769,-0.00065031062657584,0.000648040286642,0.80347863640253,133000,2964,0.0037654801055176,0.0059316529135643,0.0034306494464963,23.413404760226,0.00010250723808181,0.00010250723808181,0.00010250723808181,4327957.4214643,0.013215022680279
29391759,0.8768077851281,0.0140588483557,0.0042308306120412,0.0058146410733724,0.0040133766702867,-0.00093556112337254,0.00093592645439431,-2.2434009823611e-06,2.6065254772981e-06,-2.8081163698361e-07,6.5695770460691e-07,-0.00035666829663586,0.00036271795623149,-0.00056181110103211,0.00056149494051853,-0.00056019343252686,0.00056310443073277,-0.00036234884555388,0.00035704106822629,-0.0003576104738187,0.00036177229680076,-0.00056271939032072,0.00056056277144741,-0.00056110402365607,0.00056216853588517,-0.0012025606865044,0.0012009986694158,-0.0012009452059421,0.0012026174289113,-0.0012022604016493,0.0012013119278736,-0.0012006426392353,0.0012029294182226,-0.0010808771182238,0.0010767965235025,-0.0010761269659245,0.0010815540761176,-0.0010811841614431,0.0010764828205113,-0.0010764417798433,0.0010812426362683,-0.00036142662539936,0.00035797906968015,1.1609677531577e-07,-8.0888696966673e-07,8.1517127383573e-07,-1.4880435457248e-06,-0.001501338835975,0.0015006652516293,-0.0013748966972827,0.0013722755813039,-0.0014933111429424,0.0014942908624149,-0.0014942101681554,0.0014933765000662,-0.00151133536491,0.0015117367573294,-0.0015120906323195,0.0015109633657606,-0.0015116336646484,0.0015114299441854,-0.0015123885356512,0.0015106582115068,-0.001372957555408,0.001374237983571,-0.00137519739041,0.0013719672562367,-0.0014940790596851,0.0014935234550416,-0.0014949816184205,0.0014926114615882,-0.0013726440349151,0.0013745487255709,2.7959044513724e-06,-2.0564815302013e-06,-0.00084339242922255,0.00084413662081906,-7.6021295886273e-07,1.5285042439565e-06,-0.00064306976153278,0.00065080938119275,-0.00070683426275467,0.00070823123143006,-0.0007052187739333,0.00070984544521757,-0.00065006219380282,0.00064380655822508,-0.00064533449122472,0.00064854160170859,-0.00070908187154358,0.00070598801004944,-0.00070747590314725,0.0007075939718669,-0.0010697968504557,0.001071392234693,-0.0010690344425301,0.0010721546793134,-0.0010714129184699,0.0010697720191191,-0.0010706529002108,0.0010705351211604,-0.0009848445083674,0.00098159689901393,-0.00098008428126539,0.00098634947601474,-0.00098086149234994,0.0009855806051528,-0.00098561244218731,0.00098082516281646,-0.00064782093400133,0.00064607424900746,0.72782173347469,133000,2964,0.0038937777051638,0.0062329411245253,0.0035109751076897,24.734689961137,0.00011307751968909,0.00011307751968909,0.00011307751968909,4097154.3476287,0.013731955880366
30391759,0.90777242153629,0.014513846102326,0.004366520805001,0.006016018902349,0.004131306394976,-0.00096149715376996,0.00096180271358649,-2.2445895732033e-06,2.5432989880474e-06,-1.171124171084e-07,4.4476133144447e-07,-0.000362692591704,0.00036822971659972,-0.00057262125706721,0.0005719328726629,-0.00057101699861034,0.00057349203841751,-0.00036792948590619,0.00036295651342659,-0.00036318939618617,0.00036765838811701,-0.0005731405794205,0.00057135084065082,-0.00057151790973416,0.00057289261349194,-0.001241385694227,0.0012399098501365,-0.0012398019082327,0.0012415194622022,-0.0012412120833023,0.0012400886095779,-0.0012396170229072,0.0012416923090714,-0.0011107132295797,0.0011064910373206,-0.0011060512668546,0.0011112244543053,-0.0011109084809814,0.0011062994891782,-0.0011062469855711,0.0011110533926303,-0.00036726703175812,0.00036353662827633,9.1948796430474e-08,-4.5417883401821e-07,1.2063776972711e-06,-1.5417579600101e-06,-0.0015532613596307,0.0015529259783155,-0.001415657997084,0.0014129030214118,-0.0015364993531756,0.0015375542792445,-0.0015369555224472,0.0015369779905673,-0.0015696026449691,0.0015703698699591,-0.0015704818541511,0.0015694371876397,-0.0015697570346853,0.0015701976829205,-0.0015706658362021,0.0015692477242974,-0.0014132845005882,0.001415457451152,-0.0014159254039847,0.0014126651510056,-0.0015374236616087,0.0015366561943359,-0.0015379446136634,0.0015360807447641,-0.0014130844033104,0.0014155863851853,2.8330861071724e-06,-1.9588422181844e-06,-0.00086066099877217,0.00086155742180299,-8.9133036334133e-07,1.8407592868679e-06,-0.0006518491792613,0.00065995996131012,-0.00071850000005538,0.00072057809728889,-0.00071696107613083,0.00072211314962108,-0.00065910752408768,0.0006526122016703,-0.00065442869599371,0.0006573558406008,-0.00072117215651328,0.0007178370429701,-0.00071959679780112,0.0007195009663308,-0.0010979953514987,0.0010995778687202,-0.0010970798297577,0.0011004760368476,-0.0010996131138089,0.0010979705133596,-0.0010986755593155,0.0010988866840623,-0.0010096013036248,0.0010066927430945,-0.0010048949845494,0.0010113607604609,-0.0010057905351329,0.0010104651797006,-0.0010105480467401,0.001005746687545,-0.0006564129376191,0.00065544191232571,0.71335670371005,133000,2964,0.0040014855513605,0.0064483508898971,0.0035831437369849,26.074621044159,0.00012379696835327,0.00012379696835327,0.00012379696835327,4086905.135627,0.014132802240656
31391759,0.9338586328512,0.014921905643228,0.0044879783309251,0.0061952178829266,0.0042387094293763,-0.00098518010110935,0.00098526924479544,-2.2225893979661e-06,2.3192434004371e-06,-8.4676067161224e-08,1.5485924287717e-07,-0.00035718799925517,0.00036194105883037,-0.0005763747986876,0.00057519186782087,-0.00057483757768516,0.00057663972493821,-0.00036189158182067,0.00035725880431768,-0.00035741287806215,0.00036166868567633,-0.00057659754914719,0.00057491742831347,-0.00057508960598958,0.00057639557438395,-0.001279147016687,0.0012776530366166,-0.0012776417693135,0.0012791798960848,-0.0012790760516569,0.0012777270849918,-0.0012775684842988,0.0012792518592592,-0.0011417225975424,0.0011374416509947,-0.0011373136702605,0.0011419428227622,-0.0011418009852589,0.0011373721136986,-0.0011373799338913,0.0011418779091168,-0.00036162320460528,0.00035751596920978,-1.0820997796457e-07,-3.3813272039738e-07,1.2886732271822e-06,-1.7318772951274e-06,-0.0016070164016125,0.0016065821599474,-0.0014627179793343,0.0014594129251994,-0.0015913768421795,0.0015921536256185,-0.0015916289112904,0.0015919305354859,-0.0016229071654938,0.00162354650475,-0.0016238828720568,0.001622530953096,-0.0016229783614696,0.0016234887586317,-0.001623961075819,0.0016224669717458,-0.0014598938729625,0.0014623748118123,-0.0014628010294643,0.0014592964879753,-0.0015923652969086,0.0015911848591694,-0.001592675333364,0.0015910004157971,-0.0014598217072984,0.0014623928131858,2.7530686297196e-06,-1.7915104023495e-06,-0.00087481535657038,0.00087579760090612,-9.8687244608102e-07,2.0162841053758e-06,-0.00065475887036319,0.00066300173519483,-0.00072423462154483,0.00072676928894801,-0.00072277642787475,0.00072823421300611,-0.00066204309139204,0.00065558976436461,-0.0006575958798932,0.00066006754564044,-0.00072720726725238,0.00072377277079852,-0.00072569106630113,0.00072529251740785,-0.0011251051201894,0.0011266045171373,-0.0011241087980447,0.0011275958201965,-0.001126625183571,0.0011250767719668,-0.0011256193037129,0.0011260784692645,-0.0010335758757915,0.0010310735326628,-0.0010291294836375,0.0010355325127026,-0.001030129563278,0.0010345532733217,-0.0010345887116105,0.0010300522193628,-0.00065907077132107,0.00065866909381929,0.75948214351072,133000,2964,0.0040995949069265,0.0066704506434471,0.0036422843205884,28.35812933005,0.0001420650346404,0.0001420650346404,0.0001420650346404,3923317.6044167,0.014517686583842
32391759,0.9535498797202,0.015242958916239,0.0045837870210688,0.0063351814675741,0.0043239904275959,-0.0010011987475071,0.0010012923407019,-2.0286735983601e-06,2.1243450283936e-06,-7.4416755172594e-09,1.1156020111968e-07,-0.00033622065349564,0.00034054940450572,-0.00056777322104962,0.00056669498257943,-0.00056637640903717,0.00056796858462313,-0.00034045312727252,0.00033641016393214,-0.00033629768944975,0.00034038300886237,-0.00056789044052316,0.00056648166042713,-0.00056650307463277,0.00056782979254196,-0.0013092637073348,0.0013079359282231,-0.0013078825133338,0.001309324369548,-0.0013092353849661,0.0013079681908471,-0.0013078604875811,0.001309364213651,-0.0011669649669663,0.0011630023892571,-0.0011629303046606,0.0011671189820663,-0.0011669959696595,0.0011629748486295,-0.0011629398289917,0.0011670923957526,-0.00034027788162657,0.00033647111352753,-2.1366862979335e-07,-3.2374037929687e-07,8.8953059240341e-07,-1.412130978402e-06,-0.0016540847833743,0.0016535575542208,-0.0015089738762042,0.0015062247034907,-0.0016495528139979,0.0016498908572807,-0.0016496574097774,0.0016496943674056,-0.0016622414959055,0.0016625227473474,-0.0016630151171344,0.0016617491564062,-0.0016622818047464,0.0016625058742874,-0.001663058487679,0.001661742870748,-0.0015067704446843,0.0015084957723431,-0.0015089766394106,0.0015061598025685,-0.0016503223433815,0.0016491560637473,-0.0016504736033833,0.0016490545045943,-0.0015067171031016,0.0015084858334459,2.4252446457623e-06,-1.729246142322e-06,-0.00088136576013024,0.00088207532436073,-7.7598191654603e-07,1.5114910173472e-06,-0.00064437072633933,0.00065124572363005,-0.00071686940394757,0.00071855343634228,-0.00071554261699161,0.0007198769284244,-0.00065057427209076,0.00064494794060135,-0.00064650146615237,0.00064899878071509,-0.00071914877553825,0.00071629886582099,-0.00071778359320477,0.00071764734604867,-0.0011465669233548,0.0011479035468119,-0.0011458105071286,0.0011486640715006,-0.0011479525422654,0.0011465118101183,-0.0011471967416384,0.0011472753352099,-0.001050378856716,0.0010477412435231,-0.0010462915806785,0.0010518144088587,-0.0010470570201972,0.0010510722200039,-0.0010511390871483,0.0010469623217609,-0.00064829365254409,0.00064729906289979,0.78952232982866,133000,2964,0.0041664297565764,0.0068649593107212,0.003669149189875,29.292819593031,0.00014954255674425,0.00014954255674425,0.00014954255674425,3613590.0688434,0.014810282629583
33391759,0.96747903646727,0.015472685451119,0.0046532261198404,0.0064336892125317,0.0043857701187473,-0.0010111286930633,0.0010114388248597,-1.9881159216285e-06,2.2965634829621e-06,-2.2359790645354e-07,5.4285483258393e-07,-0.00032206005668724,0.00032732988323031,-0.00056146955281318,0.00056112466871582,-0.00056003840431398,0.00056253426739121,-0.00032701981977887,0.00032237696844968,-0.00032282390609789,0.00032655262948813,-0.00056221084850453,0.00056035514103725,-0.00056078232940064,0.00056176639768458,-0.0013288378580709,0.0013274663689582,-0.0013274123137838,0.0013288985517745,-0.0013285935759705,0.0013277206780956,-0.0013271650564347,0.0013291518509629,-0.001182868706243,0.0011792276385155,-0.001178676574817,0.0011834386911677,-0.0011831190030467,0.001178971690422,-0.0011789340047169,0.0011831861046487,-0.00032625237270991,0.00032314319669069,7.1215966151678e-08,-6.8299595198964e-07,9.9476320840946e-07,-1.5889719491963e-06,-0.0016849650595051,0.0016843710889401,-0.0015393843295473,0.0015365187879012,-0.001685348202444,0.0016863308561063,-0.0016860762488169,0.0016855794616139,-0.0016885000593312,0.0016890159576518,-0.0016893437983722,0.0016881480741277,-0.0016887408433799,0.0016887687100855,-0.0016895873993641,0.0016879005219998,-0.0015371297353896,0.0015388230356065,-0.0015396357661117,0.0015362591372107,-0.0016862073735857,0.0016854750032563,-0.0016869493185541,0.0016847321603811,-0.001536872557017,0.0015390664487847,2.5554266157932e-06,-1.7321353293873e-06,-0.00088377828213443,0.00088460936850272,-8.5385974955842e-07,1.715395890187e-06,-0.00063379732116543,0.00064132202752967,-0.00070948798386843,0.00071145342398473,-0.00070807139843949,0.00071286876802646,-0.00064049457319409,0.00063459791787674,-0.00063631592320666,0.00063878626781589,-0.00071201201461661,0.00070892573583591,-0.00071059467056453,0.00071034958534866,-0.0011593146387058,0.0011607156739182,-0.0011584594166328,0.0011615699169623,-0.0011607450223391,0.0011592822554064,-0.0011598891231566,0.001160139238369,-0.0010603773764906,0.0010578588515074,-0.0010561703306767,0.0010620572694596,-0.0010570386010202,0.0010611981682786,-0.0010612426534533,0.0010569903560854,-0.00063796907042496,0.00063716283357339,0.79432064731584,133000,2964,0.0042083339441865,0.0069925042891834,0.0036795853206792,29.275813060119,0.00014940650448095,0.00014940650448095,0.00014940650448095,3393405.9254905,0.014992956924503
34391759,0.97816328717001,0.015642300712204,0.0047051375281851,0.006505336129134,0.0044318270548852,-0.001021414141514,0.0010216406639859,-2.0858097786321e-06,2.3128575511382e-06,-1.4197672409951e-07,3.7265766520343e-07,-0.00031604325318765,0.00032106524892839,-0.00056051449851713,0.00055980322212734,-0.00055904608698135,0.00056123665493171,-0.00032086398112,0.00031627608602001,-0.00031654237291452,0.00032056063011109,-0.00056101632338094,0.00055927324963913,-0.00055955356583664,0.00056072067549348,-0.0013466508115848,0.0013452388253252,-0.0013451850055905,0.0013467108395824,-0.0013464856203401,0.001345410011946,-0.001345020270342,0.0013468801939219,-0.0011972382602227,0.0011933200730666,-0.0011929355896737,0.0011976447356133,-0.0011974038048597,0.0011931455205371,-0.0011930986540169,0.0011974781756929,-0.00032033570674457,0.00031678666697688,-2.2901832269039e-08,-5.2544183159184e-07,9.1723454408257e-07,-1.4545075575386e-06,-0.0017110431286109,0.001710508733419,-0.0015634101813631,0.0015607225007446,-0.0017129350046704,0.0017136694196453,-0.001713431991587,0.0017131634486234,-0.0017127536620006,0.0017131766280659,-0.0017135342323487,0.0017123834284697,-0.0017129154661404,0.0017130153238637,-0.0017136922787347,0.0017122171620051,-0.0015612660809644,0.001562903072697,-0.001563565960048,0.001560532236341,-0.0017137244918533,0.0017128909098343,-0.0017142399276003,0.0017124025093761,-0.0015610969584353,0.0015630514362072,2.5800329348731e-06,-1.8213899903742e-06,-0.00088799330991715,0.00088875891594774,-7.8333209226821e-07,1.5747999415256e-06,-0.00062946557856592,0.00063680672798762,-0.00070732431550968,0.00070899531078735,-0.000705880965926,0.00071043484723218,-0.00063605398383276,0.00063017254050309,-0.0006317400518355,0.0006344782517451,-0.00070965141550398,0.00070666474838673,-0.00070818990787416,0.0007081218679003,-0.0011712025496976,0.001172647043558,-0.0011704183062712,0.0011734308562435,-0.0011726697132786,0.0011711749899083,-0.001171884125643,0.0011719631730575,-0.0010707105683934,0.0010679472914133,-0.0010663972908005,0.0010722576066505,-0.0010671957753946,0.0010714786989516,-0.0010715086399544,0.0010671473750444,-0.00063371888277014,0.00063254476939871,0.76156673934848,133000,2964,0.004251025337281,0.0071004132750104,0.0036970798220721,31.391922046104,0.00016633537636883,0.00016633537636883,0.00016633537636883,3264439.3341942,0.01516366395821
35391759,0.98665198407046,0.015773458230844,0.0047455836186213,0.0065601570892775,0.0044677175229451,-0.001033350282555,0.0010335721792027,-2.1455000838326e-06,2.3666255782266e-06,-2.0893017261066e-07,4.1256392696079e-07,-0.00031909289799195,0.00032430016222727,-0.00056568787487912,0.00056504046011575,-0.00056418723561029,0.00056647332731136,-0.00032409948129918,0.00031930252485029,-0.000319712688022,0.00032363922307783,-0.00056627941866773,0.00056438438381062,-0.00056481751692175,0.00056585493068107,-0.0013642680873443,0.0013627967603518,-0.0013627676972871,0.0013643053006577,-0.0013640716107988,0.0013629959248142,-0.0013625635004536,0.001364504181141,-0.0012117363074531,0.0012077401415489,-0.0012073192861538,0.0012121746106906,-0.0012119511409173,0.0012075420544024,-0.0012075365988333,0.0012119839239305,-0.000323477164099,0.00031991979954963,4.0806419036262e-08,-5.7056734381306e-07,9.1213853974817e-07,-1.4264010166842e-06,-0.0017346996761759,0.0017341863898875,-0.0015828109056314,0.001580239646936,-0.0017339797479199,0.0017348004690262,-0.0017345835106608,0.0017341811536382,-0.0017378674532687,0.0017383318726914,-0.0017386054168705,0.0017375310609247,-0.0017380427854813,0.0017381257657058,-0.0017388129409557,0.0017373308676462,-0.0015807635093969,0.0015823508459245,-0.0015830717678063,0.0015800576483384,-0.0017346653876694,0.0017340188637278,-0.0017353897234612,0.0017334906372639,-0.0015805638400088,0.0015825331032281,2.6173407812714e-06,-1.8991711507772e-06,-0.00089558339269154,0.00089631093232227,-7.8791835653806e-07,1.5362260727081e-06,-0.00063358332290721,0.0006409308987295,-0.00071255140703659,0.00071405617130872,-0.00071106537683598,0.0007155673652735,-0.00064021927477227,0.00063419904320439,-0.00063582322684065,0.00063864444229883,-0.00071482795995403,0.00071176373939835,-0.00071332320195571,0.00071329654979366,-0.0011836487487123,0.0011851173306382,-0.0011828740262715,0.0011858825175178,-0.0011851637606294,0.0011836010700164,-0.0011843801638175,0.0011843772979008,-0.001082735506286,0.0010798086312191,-0.0010782998257933,0.001084225289605,-0.0010790656624071,0.0010834571617737,-0.001083513538029,0.0010790073634342,-0.00063791128921057,0.00063655890140664,0.7394751988005,133000,2964,0.0043006505373772,0.0071981904832838,0.0037285992012449,35.837303100657,0.00020189842480526,0.00020189842480526,0.00020189842480526,3236831.2733183,0.015345353764728
36391759,0.99215820563171,0.015860067019537,0.0047722848248739,0.0065962386025104,0.0044915435921526,-0.0010391749801003,0.001039444336782,-2.1370797219976e-06,2.4051035654565e-06,-1.9320166603548e-07,4.6951958561113e-07,-0.00031871774442216,0.00032409324287504,-0.00056695564648173,0.00056638136476998,-0.00056543916862967,0.00056787522053489,-0.00032382562016308,0.00031899400648625,-0.0003193779757144,0.0003234191091277,-0.00056759616316503,0.00056571391493825,-0.00056608294382451,0.00056720992896157,-0.0013737250613819,0.0013722616751724,-0.0013722133741497,0.0013737795773031,-0.00137351393703,0.0013724809396761,-0.0013719995606472,0.0013739982219949,-0.0012191895080678,0.0012152210060695,-0.001214744913026,0.001219684937668,-0.0012194056885124,0.0012150006465823,-0.0012149671099358,0.001219466975326,-0.00032316133564966,0.00031965564429279,3.8101919891502e-08,-6.1224041568877e-07,8.7560519084558e-07,-1.4336309304558e-06,-0.0017476293322589,0.0017470717263843,-0.0015924092323578,0.0015898142198964,-0.0017460359633571,0.0017468621708851,-0.0017466641539323,0.0017462142847996,-0.0017516144171818,0.0017520422281232,-0.0017523698253884,0.0017512663154433,-0.0017518216323518,0.001751829591333,-0.001752580254309,0.0017510533699474,-0.0015903855090922,0.0015918809930065,-0.0015926265136554,0.0015895896027068,-0.0017468028003516,0.0017460985691947,-0.0017474468637311,0.0017454607136544,-0.0015901634541557,0.0015920891595011,2.6346525568766e-06,-1.9108590106456e-06,-0.00089849930681765,0.00089923052460278,-7.695055336034e-07,1.5272880754256e-06,-0.00063491666981656,0.0006423200088113,-0.0007145380031599,0.00071604720716494,-0.00071303641230523,0.00071754803558275,-0.00064159407475828,0.00063561425120707,-0.00063716365463121,0.00064005475951494,-0.00071679459016511,0.0007137871754309,-0.00071529111242189,0.00071529650700458,-0.0011894220926323,0.0011909011672764,-0.0011886573387427,0.0011916648740612,-0.001190938696704,0.0011893815581928,-0.0011901730220266,0.0011901481519703,-0.0010884688808563,0.0010855069994387,-0.0010840094050162,0.0010899586420539,-0.0010847858183111,0.0010891913478588,-0.0010892426593554,0.0010847297132935,-0.00063933733509596,0.0006379097437643,0.75249744101029,133000,2964,0.004324985559727,0.0072515056875689,0.0037407707914231,37.52456502611,0.00021539652020888,0.00021539652020888,0.00021539652020888,3198095.7284805,0.015436582382952
37391759,0.99540926244677,0.015910874817668,0.0047879725786159,0.006617328941509,0.004505573297543,-0.0010409760492948,0.0010412379674971,-2.1734142544313e-06,2.4341793449632e-06,-1.8575638506674e-07,4.5445650803703e-07,-0.00031112608546282,0.00031653743538845,-0.00056256831977303,0.00056194227585919,-0.00056102952018839,0.00056345820699957,-0.0003162759036965,0.00031139797929481,-0.00031176534718899,0.00031588459135024,-0.00056318623386167,0.00056129787426359,-0.00056165266926442,0.00056281418759996,-0.0013787808986119,0.0013772957875278,-0.0013772474924909,0.0013788353960094,-0.0013785771427927,0.0013775073644766,-0.0013770409368445,0.0013790466385041,-0.0012230555613925,0.0012190078499138,-0.0012185466256685,0.0012235362515415,-0.0012232641214341,0.0012187951039972,-0.0012187610602435,0.0012233257200009,-0.00031563544430333,0.00031203549793515,3.0959123005485e-08,-5.9693933097725e-07,8.4001568962491e-07,-1.3902230533019e-06,-0.001756231040328,0.0017556812952905,-0.0016014073226769,0.0015988908971943,-0.0017581736300291,0.0017589585741319,-0.0017587786252712,0.0017583333694903,-0.0017577045875279,0.0017581066428723,-0.0017584341461879,0.0017573573852945,-0.0017579043592899,0.0017579017581989,-0.0017586377135119,0.0017571516762995,-0.0015994521718981,0.0016008869983787,-0.0016016175210052,0.0015986723772893,-0.0017589124179169,0.0017582224447657,-0.0017595369248997,0.0017576057806224,-0.0015992387847581,0.0016010857612554,2.6542680788403e-06,-1.9567403066248e-06,-0.00089775493322577,0.00089845975792545,-7.4401114144671e-07,1.4742574158778e-06,-0.00062893737344184,0.00063629695053181,-0.00070946052418902,0.00071084509337141,-0.00070793898999116,0.00071236627962333,-0.00063560023206113,0.0006296052608,-0.00063110321770149,0.00063411087526341,-0.00071164138532306,0.00070866140237095,-0.00071011509785619,0.00071019251883443,-0.0011924367082603,0.0011939378763981,-0.0011916981003998,0.0011946752509558,-0.0011939752914792,0.0011923961604275,-0.0011932354977442,0.0011931368739391,-0.0010901861693875,0.0010871078389048,-0.0010856628089243,0.0010916236952869,-0.001086412688148,0.0010908834253197,-0.0010909340615767,0.0010863563484728,-0.00063341770674407,0.00063182491130435,0.74709022174599,133000,2964,0.0043325398668535,0.0072871004275493,0.0037376954557888,37.635411583983,0.00021628329267187,0.00021628329267187,0.00021628329267187,3102249.1431403,0.015477328920256
38391759,0.99728662765165,0.015940703965538,0.004797207969616,0.0066296403280727,0.0045138556678496,-0.0010411233168249,0.0010414277754325,-2.147152425589e-06,2.4499569089268e-06,-2.2275661209473e-07,5.3563866381374e-07,-0.00030879882053337,0.00031435862296328,-0.00056090481756128,0.0005604427642081,-0.00055937031205886,0.00056195490547613,-0.00031405537307284,0.0003091098219924,-0.00030955449988682,0.00031358933641158,-0.00056163880018919,0.00055968090425267,-0.00056010757661152,0.00056119536565952,-0.0013801973195783,0.0013787189242564,-0.0013786674027707,0.0013802553273671,-0.0013799555443862,0.001378970196456,-0.0013784226911048,0.0013805056931863,-0.0012237550875408,0.0012197992952783,-0.0012192563869862,0.0012243167362456,-0.0012240029232578,0.0012195462916311,-0.0012195109331562,0.0012240670584144,-0.00031329541528678,0.00030986741500243,6.8353079065942e-08,-6.772961083356e-07,9.7734032234288e-07,-1.5690559995169e-06,-0.0017590131785538,0.0017584218513817,-0.0016037023617334,0.0016008734472854,-0.0017608572225248,0.0017618213941264,-0.0017615774655527,0.001761078371461,-0.0017603689500915,0.0017608720743489,-0.0017612002208091,0.0017600167337781,-0.0017606065121762,0.0017606276406761,-0.0017614409928947,0.0017597719193182,-0.0016014807950538,0.0016031432473651,-0.0016039516783959,0.0016006169615551,-0.001761702081223,0.001760978209929,-0.0017624383162671,0.0017602453220315,-0.0016012270422434,0.0016033831998401,2.7043488656353e-06,-1.89623167352e-06,-0.00089653331518497,0.0008973491912233,-8.4358764922612e-07,1.6890823596352e-06,-0.0006263644596467,0.00063414061986795,-0.00070712582357522,0.000708935446745,-0.0007056060486447,0.00071045446150105,-0.00063332934575727,0.00062714742487327,-0.00062884510737136,0.00063164126026488,-0.00070961395251467,0.0007064435126937,-0.00070809248907563,0.00070797155431029,-0.0011925183544769,0.0011940211825921,-0.0011916752564807,0.0011948631916717,-0.0011940534198036,0.0011924831822601,-0.0011932093743201,0.0011933281066975,-0.0010900364530836,0.0010871840925494,-0.0010855226600103,0.0010916892594484,-0.0010863783851721,0.0010908426442364,-0.0010908898423117,0.0010863274743915,-0.00063083876749107,0.00062967707860102,0.75853624576598,133000,2964,0.0043332689613452,0.0072984988396846,0.0037328794952802,37.196172673559,0.00021276938138847,0.00021276938138847,0.00021276938138847,3060002.1491187,0.015484765945532
38880000,0.99797196020168,0.015951727063384,0.004800623744471,0.0066341771105233,0.0045169262083901,-0.0010413886814529,0.0010416825590692,-2.1513115309167e-06,2.4442024182122e-06,-2.0861860629679e-07,5.1169002600198e-07,-0.00030507448922383,0.00031058585571767,-0.00055859804804455,0.00055809795579724,-0.00055706053896913,0.00055960118914101,-0.00031028298833885,0.00030539692113467,-0.00030579245634596,0.00030985162827426,-0.00055929675140644,0.00055737394706487,-0.00055777340726406,0.00055887350303021,-0.001381598548912,0.0013801218489625,-0.001380070034095,0.0013816585158558,-0.0013813708364755,0.0013803608723646,-0.0013798380537684,0.0013818983408149,-0.0012248553251821,0.0012208733883351,-0.0012203559912957,0.0012253969141596,-0.0012250866960112,0.0012206334794308,-0.0012205985017349,0.0012251556851061,-0.00030957289630652,0.00030609030406375,5.5252043642052e-08,-6.5226235060442e-07,9.2748917048167e-07,-1.5089585046116e-06,-0.0017617043050129,0.0017611230129412,-0.001607192928955,0.0016044741728446,-0.0017656201267962,0.0017665239706632,-0.0017662951683211,0.0017658088308586,-0.0017615097967161,0.0017619720245022,-0.0017623056419333,0.0017611557208735,-0.0017617370814946,0.0017617436028653,-0.0017625350878278,0.0017609225475864,-0.0016050670370322,0.0016066495203301,-0.0016074300948999,0.0016042200698693,-0.0017664222260232,0.0017657235775074,-0.0017671358672557,0.0017650220187178,-0.0016048274274935,0.0016068680062542,2.6834375030444e-06,-1.9154766680977e-06,-0.00089590632939236,0.00089668243619624,-8.0913068178382e-07,1.6141367093194e-06,-0.00062323648920236,0.00063085544274915,-0.00070435257002551,0.00070602354256089,-0.0007028396829489,0.00070753413338873,-0.00063008474451361,0.00062397236734509,-0.0006255960500867,0.00062845887588852,-0.00070673914045966,0.00070363639254087,-0.00070521545029015,0.00070516335624005,-0.0011934261696896,0.0011949259583788,-0.0011926203631934,0.0011957313889842,-0.0011949602931954,0.0011933878045723,-0.0011941537825206,0.0011941971634142,-0.0010903258049965,0.0010873939792767,-0.0010858119075895,0.0010919004320174,-0.0010866324127931,0.0010910923479236,-0.0010911418728234,0.0010865755719324,-0.00062769055234679,0.00062639820270536,0.76741574649663,133000,2964,0.004334390436561,0.0073096626321382,0.0037302215289397,37.193655299809,0.00021274924239848,0.00021274924239848,0.00021274924239848,3018008.0737908,0.015494567202831
