time,ASR_ext,ASR_strain,ASR_strain_xx,ASR_strain_yy,ASR_strain_zz,disp_x_101,disp_x_102,disp_x_103,disp_x_104,disp_x_105,disp_x_106,disp_x_p10_neg,disp_x_p10_pos,disp_x_p11_neg,disp_x_p11_pos,disp_x_p12_neg,disp_x_p12_pos,disp_x_p13_neg,disp_x_p13_pos,disp_x_p14_neg,disp_x_p14_pos,disp_x_p15_neg,disp_x_p15_pos,disp_x_p16_neg,disp_x_p16_pos,disp_x_p1_neg,disp_x_p1_pos,disp_x_p2_neg,disp_x_p2_pos,disp_x_p3_neg,disp_x_p3_pos,disp_x_p4_neg,disp_x_p4_pos,disp_x_p5_neg,disp_x_p5_pos,disp_x_p6_neg,disp_x_p6_pos,disp_x_p7_neg,disp_x_p7_pos,disp_x_p8_neg,disp_x_p8_pos,disp_x_p9_neg,disp_x_p9_pos,disp_y_101,disp_y_102,disp_y_103,disp_y_104,disp_y_105,disp_y_106,disp_y_p10_neg,disp_y_p10_pos,disp_y_p11_neg,disp_y_p11_pos,disp_y_p12_neg,disp_y_p12_pos,disp_y_p1_neg,disp_y_p1_pos,disp_y_p2_neg,disp_y_p2_pos,disp_y_p3_neg,disp_y_p3_pos,disp_y_p4_neg,disp_y_p4_pos,disp_y_p5_neg,disp_y_p5_pos,disp_y_p6_neg,disp_y_p6_pos,disp_y_p7_neg,disp_y_p7_pos,disp_y_p8_neg,disp_y_p8_pos,disp_y_p9_neg,disp_y_p9_pos,disp_z_101,disp_z_102,disp_z_103,disp_z_104,disp_z_105,disp_z_106,disp_z_p10_neg,disp_z_p10_pos,disp_z_p11_neg,disp_z_p11_pos,disp_z_p12_neg,disp_z_p12_pos,disp_z_p13_neg,disp_z_p13_pos,disp_z_p14_neg,disp_z_p14_pos,disp_z_p15_neg,disp_z_p15_pos,disp_z_p16_neg,disp_z_p16_pos,disp_z_p1_neg,disp_z_p1_pos,disp_z_p2_neg,disp_z_p2_pos,disp_z_p3_neg,disp_z_p3_pos,disp_z_p4_neg,disp_z_p4_pos,disp_z_p5_neg,disp_z_p5_pos,disp_z_p6_neg,disp_z_p6_pos,disp_z_p7_neg,disp_z_p7_pos,disp_z_p8_neg,disp_z_p8_pos,disp_z_p9_neg,disp_z_p9_pos,humidity,ndof,nelem,strain_xx,strain_yy,strain_zz,temp,thermal_strain_xx,thermal_strain_yy,thermal_strain_zz,vonmises,vstrain
14391759,0,0,0,0,0,0,0,0,0,0,0,0,0,0,0,0,0,0,0,0,0,0,0,0,0,0,0,0,0,0,0,0,0,0,0,0,0,0,0,0,0,0,0,0,0,0,0,0,0,0,0,0,0,0,0,0,0,0,0,0,0,0,0,0,0,0,0,0,0,0,0,0,0,0,0,0,0,0,0,0,0,0,0,0,0,0,0,0,0,0,0,0,0,0,0,0,0,0,0,0,0,0,0,0,0,0,0,0,0,0,0,0,0,0,0,0,0,0,0,0,0,0,0
15391759,0.10005767292504,0.001751398305997,0.00058379943533232,0.00058379943533232,0.00058379943533232,-0.00016233734272883,0.00016233586610146,-3.0697117211641e-10,-3.0697113544106e-10,-5.6451205562876e-10,-3.5682648386865e-10,-0.00014155997397539,0.00014155795647556,-0.0001477600707738,0.0001477571537299,-0.00014776076521078,0.00014775784816247,-0.00014155942668969,0.00014155703057332,-0.00014156015868166,0.00014155776254873,-0.00014776026911725,0.00014775695538038,-0.00014776096011369,0.00014775764637469,-0.00017269949894635,0.00017269897446108,-0.00017269979924728,0.00017269927476402,-0.00017269942923826,0.00017269904492973,-0.0001726997311773,0.00017269934687114,-0.00016640429419867,0.00016640398995044,-0.0001664045324075,0.00016640422815875,-0.00016640436290305,0.00016640392406422,-0.00016640459745754,0.00016640415862121,-0.0001415592349097,0.00014155721742973,6.3051505974185e-11,-1.3180187511166e-10,6.1176673648382e-11,-1.2722817382131e-10,-0.00017721305874014,0.00017721299245361,-0.00017277828153262,0.00017277809994931,-0.00017944549833948,0.00017944568452779,-0.00017944645917984,0.00017944626562405,-0.00017650029692293,0.00017650036956311,-0.0001765005517248,0.00017650048863376,-0.00017650032236659,0.00017650025424392,-0.00017650057716188,0.00017650037330733,-0.00017277723924284,0.00017277728922876,-0.0001727780555272,0.00017277774023655,-0.00017944544692467,0.0001794455045676,-0.0001794464077812,0.00017944608567325,-0.00017277746523901,0.00017277764894571,-3.8688936601649e-10,-3.8688939790476e-10,-0.00016285629711577,0.00016285416528416,-5.9323306029163e-10,-3.955253158334e-10,-0.00015392568749994,0.00015392415211671,-0.00015731798450956,0.00015731544167253,-0.00015731739005915,0.00015731484724014,-0.00015392650656982,0.00015392460950385,-0.00015392587393102,0.00015392397685573,-0.00015731817093132,0.00015731525114015,-0.00015731758106502,0.00015731466126194,-0.00017126792666961,0.00017126713465919,-0.00017126785803848,0.00017126720097636,-0.00017126810473929,0.00017126731272955,-0.00017126803830302,0.00017126738124179,-0.00016429660652729,0.00016429608519036,-0.00016429654902008,0.00016429602766889,-0.00016429661633182,0.00016429596584804,-0.00016429666876046,0.00016429601828078,-0.00015392633054256,0.00015392479514543,0.70055894083924,123866,2964,0.00067617597595445,0.0007381137440051,0.00067833325613825,27.142900763592,0.00013234320610874,0.00013234320610874,0.00013234320610874,1647496.4966163,0.0020948192835959
16391759,0.18842665075069,0.0033857671313486,0.0011053062695783,0.0011721109477554,0.0011083499140149,-0.00027436138667394,0.0002743602308966,-2.869195673777e-10,-2.8691780329923e-10,-4.5467269190695e-10,-3.0226632850056e-10,-0.00022205311602932,0.00022205159858385,-0.0002393816538966,0.00023937957385799,-0.00023938228736112,0.00023938020729664,-0.00022205288693512,0.00022205109785848,-0.00022205324669185,0.00022205145757363,-0.00023938179865149,0.0002393794259282,-0.00023938243029966,0.00023938005754432,-0.00029902841787669,0.00029902781202703,-0.00029902877817279,0.00029902817232739,-0.00029902836645082,0.00029902786494335,-0.0002990287279749,0.00029902822647063,-0.00028969761487129,0.00028969722367666,-0.0002896980142334,0.00028969762304065,-0.00028969766417923,0.00028969717596758,-0.00028969806082242,0.00028969757261577,-0.0002220527490725,0.00022205123167991,1.2074843430645e-11,-1.2751417499502e-10,1.0916129324889e-11,-1.2347898407087e-10,-0.00031789947895535,0.00031789936596231,-0.00030688107740396,0.0003068808822317,-0.00032232020435563,0.00032232026887718,-0.00032232085920908,0.00032232065317458,-0.0003154928416006,0.00031549282444774,-0.00031549370246559,0.00031549359403053,-0.00031549344325334,0.00031549332779808,-0.00031549430412445,0.00031549409739032,-0.00030687969163365,0.00030687966250836,-0.00030688106650285,0.00030688077517081,-0.00032232036291408,0.00032232033803748,-0.00032232101781944,0.00032232072237577,-0.00030687970254923,0.00030687976958841,-3.677168277138e-10,-3.6771511759969e-10,-0.00027474068848639,0.0002747388575156,-5.1158766902067e-10,-3.6801791111793e-10,-0.00025958004339906,0.00025957885893461,-0.00026559446628764,0.00026559247012595,-0.00026559385329281,0.00026559185713312,-0.00025958076909361,0.00025957932971255,-0.00025958017660964,0.00025957873720399,-0.00026559460300321,0.00026559232675042,-0.00026559399720904,0.00026559172093297,-0.0002940001563084,0.00029399925481894,-0.00029400010597722,0.00029399930280474,-0.00029400033579005,0.00029399943429736,-0.00029400028787859,0.00029399948470507,-0.00028342040284437,0.00028341975534491,-0.00028342035076125,0.00028341970325877,-0.00028342039903021,0.00028341966007967,-0.00028342044641363,0.00028341970745823,-0.00025958064625338,0.000259579461799,0.7587163515091,123866,2964,0.0011425375898959,0.0013236964601762,0.0011440992100958,24.452010381771,0.00011081608305417,0.00011081608305417,0.00011081608305417,2569791.9724421,0.003616872633904
17391759,0.26701784945077,0.0046716579992983,0.0014947899565609,0.0016812635976171,0.0014956044451203,-0.00035661560964324,0.00035661517938588,-8.6272850761865e-11,-8.6270292692953e-11,-1.0670702311487e-10,-4.013514564885e-11,-0.00025927786545678,0.00025927747982987,-0.00029172553071712,0.00029172504899739,-0.00029172575571295,0.00029172527397775,-0.00025927788312874,0.00025927738076989,-0.00025927792155118,0.00025927741916278,-0.00029172559440502,0.00029172498207504,-0.00029172581986035,0.00029172520750581,-0.00040151291478564,0.00040151257234756,-0.00040151308210351,0.00040151273967139,-0.00040151289260045,0.00040151259588297,-0.00040151306014035,0.0004015127634249,-0.00038355736539732,0.00038355717106176,-0.00038355756141661,0.00038355736708637,-0.00038355738602073,0.00038355715051525,-0.00038355758114766,0.00038355734565012,-0.00025927782408397,0.00025927743849838,-1.4470921849741e-11,-7.4916170751654e-11,2.4976585879505e-13,-8.8372541741827e-11,-0.00044046645979859,0.00044046637158996,-0.00042297461330698,0.00042297445905505,-0.00044708696777036,0.00044708696554443,-0.00044708717956405,0.00044708706013197,-0.00043656231906175,0.00043656228224634,-0.00043656278949031,0.0004365626918573,-0.00043656267536873,0.00043656259829329,-0.00043656314579779,0.00043656300791278,-0.00042297478728015,0.00042297476577545,-0.0004229746506597,0.00042297445571262,-0.00044708711113313,0.00044708705107794,-0.00044708732296034,0.00044708714568285,-0.00042297474993838,0.0004229747691333,-1.5147952431444e-10,-1.5147695546828e-10,-0.00035488756983748,0.00035488679882226,-1.5153575458377e-10,-5.7505697630117e-11,-0.00032544231187791,0.00032544193145281,-0.00033484592055648,0.00033484555153964,-0.00033484570933682,0.00033484534032003,-0.00032544255819055,0.00032544201075652,-0.00032544239715242,0.0003254418496856,-0.00033484601247193,0.00033484545636923,-0.00033484580415053,0.00033484524802347,-0.00039097566492968,0.00039097508081691,-0.00039097563217072,0.00039097511276784,-0.00039097572592847,0.00039097514181438,-0.00039097569421407,0.00039097517481166,-0.00037208363846218,0.0003720832996801,-0.00037208366702347,0.00037208332823677,-0.00037208369745914,0.00037208329947208,-0.00037208366742658,0.00037208326943637,-0.00032544247597611,0.00032544209557,0.68097528185715,123866,2964,0.0014848653941203,0.001833566781306,0.0014776276502579,22.117812575952,9.2142500607616e-05,9.2142500607616e-05,9.2142500607616e-05,3299212.7303497,0.0048076190115597
18391759,0.3236216760945,0.0054833807777067,0.0017388358500539,0.0020120005186281,0.0017325444090246,-0.00040256374736323,0.00040256380981413,3.4672100511718e-11,3.4674637507743e-11,9.554468170497e-11,7.0647460945033e-11,-0.00027570137563247,0.00027570163806345,-0.00031830063702748,0.00031830115482494,-0.00031830060847991,0.00031830112626622,-0.00027570165949107,0.0002757019755302,-0.00027570134851438,0.00027570166452675,-0.00031830061307107,0.00031830117665982,-0.00031830058614569,0.00031830114971636,-0.00046191598386455,0.00046191585826487,-0.00046191601976448,0.00046191589417107,-0.00046191599190244,0.00046191585074153,-0.00046191602747567,0.00046191588631717,-0.00043559437860675,0.00043559432715344,-0.00043559447396192,0.00043559442251237,-0.00043559436910437,0.00043559433587984,-0.00043559446485668,0.00043559443163831,-0.00027570168615259,0.00027570194863134,-3.5976432032932e-11,-1.026279327099e-11,-1.6096423699129e-11,-3.0354574132071e-11,-0.00051293561277613,0.00051293556648599,-0.00048786806037744,0.00048786799073664,-0.00051651615000536,0.00051651608129504,-0.00051651616031853,0.00051651614295701,-0.00051238191015815,0.00051238185962461,-0.00051238216793952,0.00051238210840922,-0.00051238210887575,0.00051238207681704,-0.00051238236666036,0.00051238232560921,-0.00048786859044928,0.00048786856733566,-0.00048786812203725,0.00048786807034558,-0.00051651629174874,0.00051651621547017,-0.00051651630209322,0.00051651627714842,-0.00048786852880097,0.00048786848774228,-1.7523452828633e-11,-1.7520885234277e-11,-0.00039825402095424,0.00039825392391103,3.4636417359166e-11,5.1120010906992e-11,-0.00035883423697594,0.00035883436213069,-0.00037086035176289,0.00037086073034495,-0.00037086036486544,0.00037086074344832,-0.00035883413621809,0.00035883423846173,-0.00035883424772132,0.0003588343499353,-0.00037086037005,0.00037086071097605,-0.00037086038353106,0.00037086072443316,-0.00044630758752958,0.00044630731660168,-0.00044630758152873,0.00044630732266731,-0.00044630756952057,0.00044630729859049,-0.00044630756369662,0.00044630730483291,-0.00042106870124903,0.0004210685353483,-0.00042106879054151,0.00042106862463551,-0.00042106879462951,0.00042106862022569,-0.00042106870578258,0.00042106853137746,-0.00035883412395994,0.00035883424913831,0.60484717275765,123866,2964,0.0016760604806559,0.002134894868562,0.0016580601364209,17.51784631236,5.5342770498883e-05,5.5342770498883e-05,5.5342770498883e-05,3813476.406238,0.0054840628346326
19391759,0.38197150592334,0.0064870250652151,0.002034582356674,0.0024320119408899,0.0020204307676512,-0.00046995624534944,0.0004699562402057,2.1944171135341e-11,2.1946554150777e-11,8.8119323684267e-11,6.1459812518445e-11,-0.00030637468014367,0.00030637493877709,-0.00036340114019499,0.00036340172555064,-0.00036340111459468,0.00036340169994583,-0.00030637502959906,0.00030637534583639,-0.00030637465125659,0.00030637496746801,-0.00036340111520042,0.00036340174997596,-0.00036340109101653,0.00036340172577909,-0.00054465026064063,0.00054465009715421,-0.00054465027496666,0.00054465011148375,-0.00054465026851833,0.00054465008911265,-0.00054465028262703,0.00054465010322509,-0.00051473346621004,0.00051473340295433,-0.00051473354928917,0.00051473348603826,-0.00051473345674337,0.00051473341224869,-0.00051473353987802,0.00051473349539146,-0.00030637505765287,0.00030637531632084,-2.5706514507157e-11,1.3167701568476e-12,-7.1441682946802e-12,-1.7986279601817e-11,-0.00061612057363767,0.00061612054889838,-0.00058542992225256,0.00058542987714402,-0.00061874057437558,0.0006187405253372,-0.00061874070045622,0.00061874070586391,-0.0006153167417444,0.00061531671401646,-0.00061531682472717,0.00061531678788508,-0.00061531675391804,0.00061531674190591,-0.00061531683690495,0.00061531681578333,-0.00058543063671611,0.00058543063162274,-0.00058542989523778,0.00058542986856515,-0.0006187406823905,0.00061874062752577,-0.0006187408085027,0.00061874080806259,-0.00058543066374259,0.00058543064021384,-5.0022556301124e-11,-5.002005027474e-11,-0.00046232365043919,0.00046232344444515,1.2070915594756e-11,2.5458344220942e-11,-0.00041550147705312,0.00041550157187289,-0.00042843201808891,0.00042843233503755,-0.00042843203071349,0.00042843234765325,-0.00041550130965934,0.00041550138859292,-0.00041550148403795,0.00041550156294017,-0.00042843203333695,0.0004284323192113,-0.00042843204579764,0.00042843233164543,-0.00052271252839272,0.0005227122242425,-0.00052271252302059,0.00052271222957577,-0.00052271249461444,0.00052271219046243,-0.00052271248943956,0.00052271219599609,-0.00049577186455412,0.00049577161890488,-0.00049577200481652,0.00049577175916842,-0.00049577200814253,0.00049577175575265,-0.00049577186816893,0.00049577161577916,-0.0004155013008183,0.00041550139566267,0.73021614767059,123866,2964,0.001956430771816,0.0025637728315281,0.0019245733978376,17.480332667932,5.5042661343455e-05,5.5042661343455e-05,5.5042661343455e-05,4067135.7312801,0.0064656743974762
20391759,0.44614748384279,0.0076364663803886,0.0023645705629749,0.0029357197754312,0.0023361760419824,-0.00054420295413407,0.00054420295176029,2.045820926575e-11,2.0460531209522e-11,8.8900480982212e-11,6.2398646595061e-11,-0.00032473182525211,0.00032473204096212,-0.00040074398347066,0.00040074464976226,-0.0004007439788342,0.00040074464512535,-0.00032473219125313,0.00032473246376261,-0.00032473179672443,0.00032473206921779,-0.00040074395900248,0.00040074467437216,-0.00040074395561216,0.00040074467098776,-0.00064244739237421,0.00064244722245421,-0.00064244741007487,0.00064244724015529,-0.00064244739998186,0.00064244721444669,-0.00064244741750152,0.00064244723196362,-0.00060625168797823,0.00060625163600719,-0.00060625175907017,0.00060625170710323,-0.00060625167876614,0.00060625164511907,-0.00060625174999702,0.00060625171635523,-0.00032473221859133,0.00032473243432735,-2.0130461998792e-11,6.1380012116219e-12,-3.3849387211221e-12,-1.1593536612179e-11,-0.00074576417789729,0.00074576416342254,-0.00070905040102268,0.00070905036903356,-0.00075205848125241,0.00075205844255723,-0.00075205874837052,0.00075205876286609,-0.00074058746302856,0.00074058744493937,-0.00074058751837808,0.00074058749302135,-0.00074058745249031,0.00074058744929895,-0.00074058750783742,0.00074058749738807,-0.00070905105925336,0.00070905106131597,-0.00070905035721873,0.00070905034303976,-0.00075205858063909,0.00075205853774533,-0.00075205884777744,0.00075205885805811,-0.00070905110306404,0.00070905108732109,-6.7996716217583e-11,-6.7994092194804e-11,-0.00053018575858401,0.0005301855167629,-7.9890596897104e-12,2.7872946294741e-12,-0.00046647978948209,0.00046647982447952,-0.00048283249676105,0.00048283273733833,-0.00048283250514741,0.00048283274570749,-0.00046647964661677,0.00046647967080103,-0.00046647979386954,0.00046647981801429,-0.00048283250949648,0.00048283272423828,-0.00048283251765928,0.0004828327323639,-0.0006110748348966,0.00061107452018259,-0.00061107483038645,0.00061107452461258,-0.00061107479014747,0.00061107447543446,-0.00061107478578763,0.00061107448000836,-0.00057874195215171,0.00057874167203217,-0.00057874214151744,0.00057874186139633,-0.00057874214408856,0.00057874185879987,-0.00057874195502668,0.00057874166974009,-0.00046647964025094,0.00046647967528103,0.76377140340812,123866,2964,0.0022653005888525,0.0031023376616216,0.0022068239342415,18.600318283984,6.4002546271874e-05,6.4002546271874e-05,6.4002546271874e-05,4151162.3746621,0.0076033556706658
21391759,0.49619266570527,0.0084460968952627,0.002598433116311,0.003295228977925,0.0025524348010266,-0.00058848267980112,0.00058848320904876,1.272282372941e-10,1.2723044813832e-10,2.9823305006739e-10,1.9011306622044e-10,-0.00032964036037582,0.00032964127626314,-0.00041813143248491,0.0004181332316709,-0.0004181312038807,0.00041813300306614,-0.00032964085929653,0.00032964198110316,-0.00032964025884298,0.00032964138064011,-0.00041813132991673,0.00041813333453235,-0.00041813110367909,0.00041813310829189,-0.00070503314253913,0.00070503316233508,-0.00070503305857396,0.0007050330783693,-0.00070503317746369,0.00070503312664163,-0.00070503309274685,0.00070503304192654,-0.00066080585264626,0.00066080590888198,-0.00066080585659861,0.00066080591284125,-0.00066080581646891,0.00066080594391826,-0.00066080582196264,0.00066080594941941,-0.00032964096203115,0.00032964187795145,-4.279884290708e-11,5.9916670000463e-11,-2.8807623456069e-11,4.3844691256764e-11,-0.00082990604482706,0.00082990606045945,-0.00078540332098868,0.00078540337124419,-0.00083573509561048,0.00083573498584946,-0.00083573506791116,0.00083573516026317,-0.00082502362099686,0.00082502357635377,-0.00082502358348425,0.00082502358949541,-0.00082502360059026,0.00082502362561813,-0.00082502356307594,0.00082502363876398,-0.00078540436444294,0.00078540434407751,-0.00078540335232604,0.00078540347257692,-0.00083573519804615,0.00083573513899686,-0.00083573517037602,0.0008357353134166,-0.0007854043331158,0.00078540424274783,5.8556207214241e-11,5.8558764981691e-11,-0.00056823332877616,0.00056823385190778,2.0614737709649e-10,1.3228319987581e-10,-0.00049096581637157,0.00049096635870664,-0.00051068583392674,0.00051068698384884,-0.00051068604319369,0.0005106871930993,-0.0004909654182847,0.00049096610533548,-0.0004909657410506,0.00049096642806779,-0.0005106857665035,0.0005106870524004,-0.00051068597402256,0.00051068725989079,-0.00066500280846778,0.00066500278027925,-0.00066500283316481,0.00066500275623582,-0.00066500270256621,0.00066500267437597,-0.0006650027266525,0.00066500264972094,-0.00062670409826388,0.00062670397967887,-0.00062670431541436,0.00062670419682875,-0.00062670428932762,0.00062670422093397,-0.00062670407428488,0.00062670400589247,-0.00049096548804284,0.00049096603040094,0.6908403174145,123866,2964,0.0024495048916589,0.0034516947510942,0.0023650699789567,15.321311804363,3.7770494434905e-05,3.7770494434905e-05,3.7770494434905e-05,4344094.0161302,0.008300711068736
22391759,0.54344736740688,0.0092087466570876,0.0028181411838223,0.003636821467458,0.0027537840058072,-0.00063669177376182,0.00063669212566541,8.6225522810642e-11,8.6227615864348e-11,2.3627537335394e-10,1.2890079353689e-10,-0.00034534116513279,0.00034534177708625,-0.0004442060159897,0.00044420745809248,-0.00044420588442895,0.00044420732654172,-0.00034534156613118,0.00034534238673193,-0.00034534106175739,0.00034534188235118,-0.00044420591371137,0.00044420756153676,-0.00044420578395597,0.00044420743178047,-0.00076882520581899,0.00076882517012982,-0.00076882514353897,0.00076882510784934,-0.00076882523981494,0.00076882513492498,-0.0007688251770898,0.00076882507220103,-0.00071763840464068,0.00071763842198261,-0.00071763844177594,0.00071763845912095,-0.00071763836911699,0.00071763845716755,-0.00071763840708785,0.00071763849514241,-0.00034534166958372,0.00034534228156141,-3.6297273849082e-11,6.6495157457738e-11,-2.8924265900075e-11,5.6817182854947e-11,-0.0009127164582817,0.00091271648682229,-0.00086057115192644,0.00086057122844443,-0.00091639118601692,0.00091639108511784,-0.00091639130102587,0.00091639140298284,-0.00090984080154138,0.00090984076849439,-0.00090984067079164,0.00090984069411809,-0.00090984068412016,0.00090984071737167,-0.00090984055336786,0.0009098406430069,-0.00086057216956503,0.00086057214857835,-0.00086057111165769,0.00086057125745821,-0.00091639123776188,0.00091639119555079,-0.00091639135279642,0.00091639151342099,-0.00086057220984589,0.0008605721195678,-7.6849006598688e-12,-7.6823683383324e-12,-0.00061062615498541,0.00061062640214654,1.3730796208601e-10,5.1371712533857e-11,-0.00052369022375718,0.00052369049816521,-0.00054533083215723,0.00054533159484519,-0.00054533097087226,0.00054533173354419,-0.00052368992071097,0.00052369036744678,-0.00052369013507431,0.00052369058177865,-0.00054533075198042,0.00054533167584592,-0.0005453308893599,0.00054533181319587,-0.00072042929889508,0.00072042919400025,-0.00072042932694343,0.0007204291661859,-0.00072042920610858,0.00072042910121238,-0.00072042923388243,0.00072042907311981,-0.00067802378913174,0.00067802355880079,-0.00067802402204521,0.00067802379171199,-0.00067802399226398,0.00067802382022729,-0.00067802376077181,0.00067802358873772,-0.00052369000480929,0.00052369027924972,0.69163756941875,123866,2964,0.0026499938891319,0.0037953886491917,0.0025413481253692,14.812428186651,3.3699425493212e-05,3.3699425493212e-05,3.3699425493212e-05,4562639.3155644,0.0090274522778741
23391759,0.59167150637889,0.0099519127055511,0.0030316023005398,0.0039725160017253,0.002947794403286,-0.000684392579327,0.00068439282854753,6.197426290528e-11,6.1976351900286e-11,1.9326973879362e-10,1.0337983616991e-10,-0.00035488119588985,0.00035488165044986,-0.00046584904282486,0.00046585032689876,-0.00046584898357634,0.0004658502676565,-0.00035488156015013,0.0003548821911005,-0.00035488110815814,0.00035488173910273,-0.00046584895735706,0.00046585041367826,-0.00046584889949644,0.00046585035581631,-0.00083438359533311,0.00083438351845641,-0.00083438355828913,0.0008343834814134,-0.00083438362343416,0.00083438348917736,-0.0008343835861139,0.00083438345186139,-0.00077504697885083,0.00077504698055389,-0.00077504703842831,0.00077504704013423,-0.00077504694922867,0.00077504701014139,-0.00077504700931821,0.0007750470702388,-0.00035488164720375,0.00035488210179449,-2.6691864170107e-11,5.9317051228331e-11,-2.3820319346036e-11,5.4286563593775e-11,-0.00099902806718237,0.00099902809828839,-0.00093910454805401,0.0009391046256187,-0.0010022014225586,0.0010022013433468,-0.0010022016677818,0.0010022017586223,-0.00099694870313533,0.00099694868177734,-0.00099694857159512,0.00099694860058179,-0.00099694857130117,0.00099694860396245,-0.0009969484397658,0.00099694852277668,-0.00093910547950303,0.00093910546264292,-0.00093910448089578,0.00093910461615822,-0.0010022014596745,0.0010022014337574,-0.0010022017049244,0.0010022018490432,-0.00093910554667272,0.00093910547210096,-4.9734083582518e-11,-4.9731590263466e-11,-0.00065148076852057,0.00065148083262547,8.1548682883421e-11,3.9531749096907e-12,-0.00055129757077601,0.00055129768937412,-0.00057631477618003,0.00057631528743487,-0.00057631486066567,0.00057631537190591,-0.00055129734423494,0.0005512976208239,-0.00055129748973565,0.00055129776630272,-0.00057631470364063,0.00057631536052199,-0.00057631478724631,0.00057631544409622,-0.00077674226621838,0.00077674209528845,-0.00077674229119263,0.00077674207026496,-0.0007767421864418,0.00077674201550627,-0.00077674221134416,0.00077674199041088,-0.00072867890523857,0.00072867861075419,-0.0007286791495866,0.00072867885509864,-0.00072867912278713,0.00072867888115319,-0.00072867887939306,0.00072867863776124,-0.00055129742159505,0.00055129754024278,0.66282300645257,123866,2964,0.0028483734555955,0.0041534751558838,0.0027112279955487,15.632826498751,4.0262611990012e-05,4.0262611990012e-05,4.0262611990012e-05,4638769.2447505,0.0097606774435488
24391759,0.64440818413817,0.010800977980913,0.0032747045740269,0.0043589409771715,0.0031673324297148,-0.0007415730173375,0.00074157311348847,2.7886140185794e-11,2.7888267885501e-11,1.2897811725558e-10,6.8405980781008e-11,-0.00037047278642252,0.00037047301542433,-0.00049473678718684,0.00049473781246421,-0.00049473682845582,0.00049473785374271,-0.00037047311160105,0.00037047346255333,-0.00037047272527922,0.00037047307622488,-0.00049473672987453,0.00049473787099651,-0.00049473677205692,0.00049473791318216,-0.00091089188243724,0.00091089174547737,-0.00091089189156838,0.00091089175461289,-0.00091089190079231,0.00091089172611959,-0.00091089190985028,0.00091089173518299,-0.00084368743572756,0.00084368741443415,-0.00084368752715097,0.00084368750585711,-0.00084368741584293,0.00084368743459197,-0.00084368750738573,0.00084368752613967,-0.00037047317118217,0.0003704734002129,-1.4961973921967e-11,4.3131148998005e-11,-1.4121793596252e-11,4.0502724411299e-11,-0.0011000646710257,0.0011000646979903,-0.0010317272807196,0.0010317273409891,-0.0011023635626964,0.0011023635145016,-0.001102363975231,0.0011023640424884,-0.0010987291118244,0.0010987291044455,-0.0010987290344361,0.0010987290607941,-0.0010987290008463,0.0010987290278956,-0.0010987289234596,0.0010987289842528,-0.0010317280423407,0.0010317280346659,-0.0010317271899666,0.0010317272888778,-0.0011023635969871,0.0011023635860941,-0.0011023640095433,0.0011023641140868,-0.0010317281331033,0.0010317280867839,-1.0330537158262e-10,-1.0330287369753e-10,-0.00070046141359126,0.00070046120429047,-2.8312699257649e-12,-5.5772368486544e-11,-0.00058689013040568,0.0005868900384223,-0.00061509561448369,0.00061509576102601,-0.0006150956190441,0.00061509576557761,-0.00058689002082969,0.00058689004149168,-0.00058689007275713,0.0005868900933916,-0.00061509556529197,0.00061509581035238,-0.0006150955695844,0.00061509581461155,-0.00084238741415777,0.00084238713917735,-0.00084238743057323,0.00084238712238097,-0.00084238735742916,0.00084238708244412,-0.00084238737403491,0.00084238706583514,-0.000789504046409,0.00078950367943727,-0.00078950429754628,0.00078950393056866,-0.00078950427917672,0.00078950394887296,-0.00078950402836572,0.0007895036980685,-0.00058689007613694,0.00058688998420073,0.69344629843763,123866,2964,0.003086132020356,0.0045724651518294,0.0029148668898612,17.852424566066,5.8019396528526e-05,5.8019396528526e-05,5.8019396528526e-05,4702309.4848386,0.010629899864768
25391759,0.69908550215075,0.011767368525993,0.0035496120948443,0.0048037198676407,0.0034140365635079,-0.00080353140344342,0.00080353151724419,3.0547874871627e-11,3.0550037746729e-11,1.3105347821502e-10,7.9877196063843e-11,-0.00038000196437824,0.00038000219338649,-0.00052104306293148,0.00052104416656792,-0.00052104313032823,0.00052104423397383,-0.00038000228969427,0.00038000262189288,-0.00038000191244742,0.00038000224464556,-0.0005210430146464,0.00052104421566942,-0.00052104308289769,0.00052104428392191,-0.0009961178699265,0.0009961177410048,-0.0009961178980341,0.00099611776911366,-0.00099611788539813,0.00099611772474411,-0.0009961179134196,0.00099611775277012,-0.00092130537462302,0.00092130536934305,-0.00092130547707063,0.00092130547178884,-0.00092130535776644,0.0009213053863228,-0.00092130546044031,0.00092130548900078,-0.00038000234007063,0.00038000256909683,-1.1174416276312e-11,3.7534728543852e-11,-1.0114571392816e-11,3.4898651590738e-11,-0.001217507220536,0.0012175072458351,-0.0011412149408349,0.0011412149932585,-0.0012217657586216,0.0012217657211662,-0.0012217662364873,0.0012217662958586,-0.0012136740788675,0.0012136740753693,-0.0012136740664729,0.0012136740910012,-0.0012136740175564,0.0012136740430982,-0.0012136740051644,0.0012136740587352,-0.0011412156039327,0.0011412156009486,-0.0011412148632013,0.0011412149479867,-0.0012217658029335,0.001221765796413,-0.0012217662808278,0.0012217663711143,-0.0011412156815721,0.0011412156462221,-1.0777033114624e-10,-1.0776789223546e-10,-0.00075155449831749,0.00075155426435996,-2.0292113986906e-11,-6.3586557062565e-11,-0.00062027263188182,0.00062027250312287,-0.0006528911434295,0.00065289122385068,-0.00065289112845625,0.00065289120886908,-0.00062027257966409,0.0006202725445087,-0.00062027258392274,0.00062027254873882,-0.00065289110361934,0.00065289126376079,-0.00065289108854217,0.00065289124865068,-0.00091433084845262,0.00091433056484527,-0.00091433086172684,0.000914330551151,-0.00091433079927096,0.0009143305156594,-0.00091433081273836,0.00091433050215511,-0.00085627783007053,0.00085627746781024,-0.00085627808351837,0.00085627772124907,-0.00085627806835527,0.00085627773635865,-0.00085627781521636,0.00085627748322173,-0.00062027262557054,0.00062027249684557,0.76207065498803,123866,2964,0.0033437747475534,0.0050592365454958,0.0031272971155586,19.83490368594,7.3879229487517e-05,7.3879229487517e-05,7.3879229487517e-05,4631651.1575612,0.011597472459317
26391759,0.74926147751855,0.012726541914032,0.0038228230989132,0.0052475292025682,0.0036561896125507,-0.00086057318256684,0.00086057348673748,6.3674983272969e-11,6.3677001593664e-11,2.0463475076207e-10,1.3347279696091e-10,-0.00038157371884724,0.00038157418904485,-0.00054016227060854,0.00054016380573009,-0.00054016227297855,0.00054016380811359,-0.00038157405993807,0.00038157466861162,-0.00038157364962092,0.00038157425827717,-0.00054016220315583,0.00054016387363646,-0.00054016220668655,0.00054016387716882,-0.0010774767231716,0.0010774766621787,-0.0010774767252039,0.0010774766642117,-0.0010774767455258,0.0010774766391078,-0.0010774767472766,0.0010774766408663,-0.00099516358934848,0.00099516362039957,-0.00099516368690239,0.00099516371795733,-0.00099516356580896,0.00099516364357987,-0.0009951636641251,0.00099516374189694,-0.00038157412838431,0.00038157459859146,-1.7013474602971e-11,4.9990377964297e-11,-1.6300025254976e-11,4.7547388324814e-11,-0.0013336580941568,0.0013336581258823,-0.0012497683629976,0.0012497684337287,-0.0013414253036649,0.0013414252486269,-0.0013414256929555,0.001341425770081,-0.0013256524902184,0.0013256524788549,-0.0013256524818989,0.0013256525129476,-0.0013256524526128,0.0013256524843308,-0.0013256524442963,0.001325652518423,-0.0012497691025766,0.001249769094169,-0.001249768319379,0.001249768435009,-0.001341425354708,0.0013414253435222,-0.001341425744034,0.001341425864977,-0.0012497691461889,0.001249769092893,-6.4608562353872e-11,-6.4605993478305e-11,-0.00079583983812408,0.00079583987896381,5.0601281650874e-11,-1.2943846192031e-11,-0.00064446993378764,0.00064446998048888,-0.00068235463898127,0.00068235504472963,-0.00068235467799935,0.00068235508373993,-0.00064446987008207,0.00064447004620148,-0.00064446986747893,0.00064447004354424,-0.00068235458021504,0.00068235510394099,-0.00068235461883306,0.00068235514250836,-0.00098113481671699,0.00098113463533393,-0.00098113483712481,0.00098113461470748,-0.00098113475404848,0.00098113457265574,-0.0009811347744358,0.0009811345520144,-0.00091754050043787,0.00091754019990299,-0.00091754074649394,0.00091754044595754,-0.00091754072445455,0.00091754046733698,-0.000917540479235,0.00091754022212677,-0.00064446993348346,0.0006444699802189,0.82335182229769,123866,2964,0.0035810084274538,0.0055403801454572,0.0033114585517364,20.411806942323,7.8494455538587e-05,7.8494455538587e-05,7.8494455538587e-05,4493379.1110185,0.012511011083459
27391759,0.79730119857976,0.013558205371791,0.0040639246014424,0.0056279969715931,0.0038662837987559,-0.0009114149480089,0.00091141509393125,2.6197594210891e-11,2.6199434625256e-11,1.4575134605084e-10,8.7356471077126e-11,-0.00038143443229681,0.00038143465628873,-0.00055576372598582,0.00055576493736414,-0.00055576381743237,0.00055576502882776,-0.00038143471402655,0.00038143505543649,-0.00038143437309881,0.00038143471449544,-0.00055576367042224,0.00055576499344331,-0.00055576376264239,0.00055576508566508,-0.0011518998425286,0.0011518997252203,-0.0011518998861623,0.0011518997688585,-0.001151899860349,0.001151899706621,-0.0011518999039338,0.0011518997502085,-0.0010590653819998,0.0010590653729582,-0.0010590655110313,0.00105906550199,-0.0010590653627706,0.0010590653923093,-0.0010590654920345,0.0010590655215765,-0.00038143477163333,0.00038143499563826,-1.2546812938771e-11,4.3179294600719e-11,-1.2554252887957e-11,4.16189922917e-11,-0.0014372809670623,0.0014372809965738,-0.0013437403364981,0.0013437403998453,-0.0014466533029061,0.0014466532598905,-0.001446653804412,0.0014466538718565,-0.0014279483386894,0.0014279483338367,-0.0014279483612981,0.0014279483906416,-0.0014279482955948,0.0014279483246107,-0.0014279483182028,0.0014279483814233,-0.0013437409606577,0.0013437409552921,-0.0013437402599259,0.0013437403601811,-0.0014466533446273,0.0014466533385704,-0.0014466538461648,0.0014466539505395,-0.0013437410372344,0.0013437409949636,-1.1577433271772e-10,-1.1577173551765e-10,-0.00083340135826815,0.00083340113105984,-2.2110617506401e-11,-7.4669894724207e-11,-0.00066106921843249,0.00066106904851511,-0.00070488152234352,0.00070488156633286,-0.00070488148898062,0.00070488153296226,-0.00066106925973116,0.00066106920153284,-0.00066106916155244,0.00066106910330843,-0.00070488147341764,0.00070488161528398,-0.00070488144009647,0.00070488158192764,-0.0010406544596348,0.0010406541815315,-0.0010406544759368,0.0010406541647372,-0.0010406544183173,0.0010406541402113,-0.0010406544348631,0.0010406541236589,-0.00096963018838122,0.00096962981361728,-0.00096963042818069,0.00096963005341485,-0.000969630409977,0.00096963007159755,-0.00096963017037662,0.00096962983200379,-0.00066106931487151,0.00066106914498831,0.74366212196709,123866,2964,0.003792459853763,0.0059694033838849,0.0034676894371812,22.21378616296,9.2910289303677e-05,9.2910289303677e-05,9.2910289303677e-05,4335409.9620008,0.01331813517906
28391759,0.84003153246567,0.014401092943939,0.0043088920585807,0.0060114739080592,0.0040807269772991,-0.00096439175682894,0.00096439199868624,4.3408069648563e-11,4.3409807801346e-11,1.7960828986944e-10,1.164273179533e-10,-0.00039404110514452,0.00039404144623314,-0.0005810557975218,0.00058105722873248,-0.00058105585947491,0.00058105729069854,-0.00039404139058983,0.00039404185628777,-0.00039404104252115,0.00039404150820426,-0.00058105573747038,0.00058105728906305,-0.00058105580032377,0.00058105735191885,-0.0012236994824146,0.0012236994016881,-0.0012236995150685,0.0012236994343471,-0.0012236995020453,0.0012236993814069,-0.0012236995345478,0.0012236994139119,-0.0011243208589953,0.0011243208730426,-0.0011243209930111,0.0011243210070563,-0.0011243208381245,0.0011243208937242,-0.0011243209726817,0.0011243210282855,-0.00039404145202054,0.00039404179312995,-1.3330022776954e-11,4.6321275008757e-11,-1.4032480927634e-11,4.5439082120908e-11,-0.0015360735195289,0.0015360735513558,-0.0014337958463686,0.0014337959156582,-0.0015456624637718,0.0015456624175696,-0.001545662937718,0.0015456630093155,-0.0015264948915638,0.0015264948847861,-0.0015264949247128,0.0015264949567727,-0.0015264948654247,0.0015264948962895,-0.0015264948985705,0.0015264949682789,-0.0014337964851007,0.0014337964784642,-0.0014337957894548,0.0014337958984415,-0.0015456625111999,0.0015456625056947,-0.0015456629851725,0.0015456630974427,-0.0014337965420159,0.0014337964956854,-9.4320897881167e-11,-9.4318222701863e-11,-0.00087469080548964,0.00087469071806619,1.1251250032035e-11,-4.7403525516599e-11,-0.00069014516088009,0.00069014507919734,-0.00073656728247477,0.00073656749647479,-0.00073656727234993,0.00073656748634053,-0.00069014521323683,0.00069014525298887,-0.00069014509892775,0.00069014513864738,-0.00073656722804378,0.00073656755106272,-0.00073656721785332,0.00073656754083801,-0.0010984361870861,0.00109843596493,-0.0010984362056363,0.0010984359459807,-0.0010984361399757,0.0010984359178182,-0.0010984361586702,0.0010984358990107,-0.0010244795109024,0.0010244791693669,-0.001024479745003,0.0010244794034586,-0.0010244797247186,0.0010244794234324,-0.0010244794910858,0.0010244791898057,-0.00069014527303985,0.00069014519139094,0.84556057744222,123866,2964,0.0040126766634634,0.0063782138070547,0.0036393412834616,23.413744863651,0.0001025099589092,0.0001025099589092,0.0001025099589092,4327491.3098994,0.014129903883959
29391759,0.87700248012045,0.014956411020204,0.0044736600274916,0.0062599423092936,0.0042228086834189,-0.00099476533323219,0.00099476555965972,3.6319155504142e-11,3.6320812247647e-11,1.7458438848589e-10,1.11701208193e-10,-0.00037746122779046,0.00037746153586429,-0.00057918604915798,0.00057918745791966,-0.00057918612455952,0.00057918753334063,-0.0003774614937347,0.00037746192642675,-0.00037746116503484,0.00037746159772219,-0.00057918598927158,0.00057918751802416,-0.00057918606548592,0.00057918759424022,-0.0012754145665616,0.0012754144802716,-0.0012754146079645,0.0012754145216792,-0.0012754145860423,0.001275414460132,-0.0012754146273355,0.0012754145014283,-0.0011645130642113,0.0011645130683752,-0.001164513207589,0.0011645132117516,-0.0011645130434363,0.0011645130890271,-0.0011645131872754,0.00116451323287,-0.0003774615551559,0.00037746186324372,-1.3130037239316e-11,4.6416117001105e-11,-1.4548061272597e-11,4.6278579873725e-11,-0.0016098917335171,0.0016098917656531,-0.0015002996873506,0.0015002997583935,-0.0016234472474558,0.0016234472012185,-0.001623447737343,0.0016234478087378,-0.0015976187726419,0.0015976187659448,-0.0015976188187894,0.0015976188516181,-0.0015976187500365,0.0015976187807489,-0.0015976187961842,0.0015976188664245,-0.0015003003047949,0.0015003002970536,-0.0015002996268132,0.0015002997373895,-0.001623447294459,0.001623447289758,-0.0016234477843755,0.0016234478972728,-0.0015003003653361,0.0015003003180648,-1.0184758330271e-10,-1.0184483656309e-10,-0.00089186266629507,0.00089186254817863,3.2764070844832e-12,-5.6567232895159e-11,-0.00068325537839694,0.00068325526428267,-0.00073687232738063,0.00073687249336068,-0.00073687230404589,0.00073687247001784,-0.00068325546534407,0.00068325547551912,-0.00068325531516171,0.00068325532530034,-0.00073687227163792,0.00073687254915008,-0.00073687224834962,0.0007368725258211,-0.0011367250086626,0.0011367247758438,-0.0011367250275407,0.0011367247565158,-0.001136724966434,0.0011367247336089,-0.0011367249855078,0.001136724714477,-0.0010538539799622,0.0010538536274457,-0.0010538542054424,0.001053853852919,-0.0010538541847971,0.0010538538733745,-0.0010538539596524,0.0010538536482351,-0.00068325552672991,0.00068325541265482,0.64299206939106,123866,2964,0.0041391456952992,0.0066835741902934,0.0037109178507002,24.735046520021,0.00011308037216017,0.00011308037216017,0.00011308037216017,4004962.3675841,0.014640711099635
30391759,0.9079227532617,0.01536032691627,0.0045961503190831,0.0064354986860682,0.0043286779111184,-0.0010220856365739,0.001022085866303,3.7803302311534e-11,3.7804933791105e-11,1.7453494614338e-10,1.1158537234935e-10,-0.00039329195380691,0.00039329225647259,-0.00059745058674898,0.0005974519958421,-0.00059745066635604,0.00059745207546386,-0.00039329222053733,0.00039329264788012,-0.0003932918910314,0.00039329231836583,-0.00059745052679309,0.00059745205599766,-0.00059745060720636,0.00059745213641486,-0.0013114805902453,0.0013114805093066,-0.0013114806347629,0.0013114805538272,-0.0013114806097817,0.0013114804891512,-0.0013114806541906,0.0013114805335638,-0.0011932442445108,0.0011932442534096,-0.0011932443941576,0.0011932444030582,-0.0011932442237102,0.0011932442740656,-0.0011932443738361,0.0011932444241952,-0.00039329228198822,0.00039329258467305,-1.2574455917827e-11,4.7008494196667e-11,-1.4815285958331e-11,4.7702189613204e-11,-0.0016522292345994,0.0016522292678794,-0.0015318526551737,0.0015318527290035,-0.0016596400833389,0.001659640037695,-0.0016596405816699,0.0016596406536718,-0.0016477649780487,0.0016477649718351,-0.0016477650333047,0.0016477650677898,-0.0016477649597027,0.0016477649910135,-0.0016477650149571,0.0016477650869717,-0.0015318532576739,0.0015318532494558,-0.0015318525962693,0.0015318527096558,-0.0016596401311542,0.0016596401281696,-0.0016596406295113,0.00165964074415,-0.0015318533165815,0.0015318532688096,-1.0236124577612e-10,-1.0235848113631e-10,-0.00091381517196417,0.00091381505130283,2.4125836060504e-12,-5.9160523539557e-11,-0.00070478776753712,0.00070478764962685,-0.00075802059098278,0.00075802074871994,-0.00075802056559758,0.00075802072332451,-0.00070478785646628,0.00070478786617421,-0.0007047877026297,0.00070478771229804,-0.00075802053356222,0.00075802080619175,-0.00075802050823097,0.00075802078082487,-0.0011640329504812,0.001164032722595,-0.0011640329699337,0.001164032702686,-0.0011640329090983,0.0011640326812081,-0.0011640329287501,0.0011640326614983,-0.0010793571061506,0.0010793567529613,-0.0010793573317378,0.0010793569785447,-0.0010793573105222,0.0010793569995665,-0.0010793570852696,0.0010793567743194,-0.00070478791951297,0.00070478780164145,0.55654009761524,123866,2964,0.0042526020683361,0.006858608749879,0.0038021301705323,26.07498450229,0.00012379987601832,0.00012379987601832,0.00012379987601832,4129091.8301024,0.015026062938779
31391759,0.93396886651151,0.015782232950618,0.0047207411094992,0.0066229815978808,0.0044385102432383,-0.0010504947531987,0.0010504948203157,3.3383242223689e-12,3.3399351437446e-12,1.1098284509438e-10,6.9760216130636e-11,-0.00039662171283475,0.0003966217991379,-0.00060910494109983,0.00060910602640338,-0.0006091050983854,0.00060910618370534,-0.00039662197387243,0.00039662214574571,-0.00039662166919466,0.00039662184106074,-0.0006091049019491,0.00060910606572895,-0.0006091050597704,0.00060910622355417,-0.0013508901594973,0.0013508900128224,-0.0013508902469313,0.0013508901002596,-0.0013508901716576,0.0013508900000974,-0.0013508902591688,0.0013508900876121,-0.0012284740247941,0.0012284739969794,-0.0012284741905667,0.0012284741627537,-0.0012284740112139,0.0012284740108141,-0.0012284741769952,0.0012284741765995,-0.00039662201552275,0.00039662210184097,-6.2315136903578e-12,3.3307878511293e-11,-7.970894395383e-12,3.3764944170493e-11,-0.0017058935064684,0.0017058935326329,-0.0015818413680042,0.0015818414215128,-0.001715935215042,0.0017159351886726,-0.001715935818075,0.0017159358703872,-0.0016996256551196,0.0016996256568511,-0.0016996257678167,0.0016996257948936,-0.0016996256497674,0.0016996256743844,-0.0016996257624624,0.0016996258124303,-0.0015818418511419,0.0015818418491062,-0.001581841286481,0.0015818413658821,-0.0017159352673712,0.001715935269528,-0.00171593587043,0.0017159359512444,-0.0015818419326683,0.0015818419047429,-1.4806837800607e-10,-1.4806559922699e-10,-0.00093457374648714,0.00093457334652563,-7.4516526483031e-11,-1.1383162133093e-10,-0.00071633308377394,0.00071633278500551,-0.0007716393741769,0.00077163918078542,-0.00077163928429236,0.00077163909089169,-0.00071633324465549,0.00071633303352764,-0.00071633303938387,0.00071633282821649,-0.00077163933777929,0.0007716392169192,-0.00077163924827683,0.00077163912738191,-0.0011948323633251,0.0011948320188346,-0.0011948323749876,0.0011948320065141,-0.0011948323409489,0.0011948319964542,-0.0011948323530135,0.0011948319845358,-0.0011081240822454,0.0011081236649322,-0.0011081243094816,0.0011081238921647,-0.001108124295799,0.0011081239062364,-0.0011081240683471,0.0011081236787901,-0.00071633328818507,0.00071633298945442,0.69215549466537,123866,2964,0.0043707116283129,0.0070804939122464,0.0038884515717124,28.358762009837,0.0001420700960787,0.0001420700960787,0.0001420700960787,4012514.3253661,0.015458961237135
32391759,0.95362827899446,0.016147794127648,0.0048285769614365,0.0067855171847779,0.0045336999814332,-0.0010679661214699,0.0010679664290888,4.9643295254936e-11,4.9644829413951e-11,1.9897493706255e-10,1.4084484104414e-10,-0.00037235987310292,0.00037236028003926,-0.0005991885242559,0.00059919012770862,-0.00059918857877748,0.00059919018224828,-0.00037236013861243,0.00037236065884736,-0.00037235981607326,0.00037236033629908,-0.00059918846912686,0.00059919018272553,-0.00059918852451173,0.00059919023811285,-0.0013843789821093,0.0013843789289104,-0.0013843790165822,0.0013843789633852,-0.0013843790002911,0.0013843789102939,-0.0013843790345745,0.0013843789445779,-0.0012569888244883,0.0012569888502705,-0.0012569889792467,0.0012569890050298,-0.0012569888052121,0.0012569888690916,-0.0012569889607228,0.0012569890246041,-0.00037236019459622,0.00037236060155142,-1.0812902261493e-11,4.3304433094e-11,-1.3320162346566e-11,4.4368439442278e-11,-0.0017607192758661,0.0017607193072844,-0.0016381487718137,0.0016381488406607,-0.0017803402417953,0.001780340201275,-0.0017803407204004,0.0017803407864558,-0.00174441211923,0.0017444121135654,-0.0017444121828054,0.0017444122156714,-0.0017444121154614,0.0017444121447159,-0.0017444121790365,0.0017444122468229,-0.0016381493838821,0.0016381493769845,-0.00163814873116,0.0016381488360162,-0.001780340296003,0.0017803402950951,-0.0017803407746347,0.0017803408802777,-0.0016381494245402,0.0016381493816325,-8.2646855342359e-11,-8.2643990194593e-11,-0.00093972015224167,0.00093972015563934,2.864431931806e-11,-2.8861367099164e-11,-0.00069743099870216,0.00069743097243819,-0.00075938167066932,0.0007593819925591,-0.00075938166101839,0.00075938198289713,-0.00069743112421218,0.00069743121544836,-0.00069743093881448,0.00069743103000571,-0.00075938161760593,0.00075938204567413,-0.00075938160799963,0.00075938203603468,-0.0012185155300521,0.0012185153503556,-0.00121851554834,0.0012185153316646,-0.0012185154851778,0.0012185153054789,-0.0012185155036163,0.0012185152869377,-0.0011263693505213,0.0011263690324546,-0.0011263695624378,0.0011263692443686,-0.0011263695425974,0.0011263692638556,-0.0011263693311675,0.0011263690524328,-0.00069743118214294,0.00069743115591661,0.79325035118638,123866,2964,0.0044436420414823,0.0073071381976044,0.0039101140890271,29.293093293625,0.000149544746349,0.000149544746349,0.000149544746349,3561189.6694957,0.015785404460421
33391759,0.96753445091476,0.016415181870704,0.0049095385027355,0.0069005560598319,0.0046050873081367,-0.0010784269773772,0.0010784274665235,8.4443691626715e-11,8.4444707213336e-11,2.4606573261078e-10,1.930632490135e-10,-0.00036080934336377,0.00036081000212383,-0.00059514850738351,0.00059515048576766,-0.00059514851122061,0.00059515048962814,-0.0003608096194373,0.00036081037696317,-0.00036080929385261,0.00036081005136696,-0.00059514845769482,0.00059515053499819,-0.00059514846258022,0.00059515053989549,-0.0014044489859342,0.001404449007162,-0.0014044489919641,0.0014044490131936,-0.0014044490027958,0.0014044489901293,-0.0014044490084891,0.0014044489958181,-0.0012738758033048,0.0012738758956335,-0.0012738759462299,0.0012738760385721,-0.0012738757857541,0.0012738759122326,-0.001273875929906,0.0012738760563826,-0.0003608096684798,0.00036081032726201,-8.283706761974e-12,3.8736340605649e-11,-9.1698621353886e-12,3.8273196062301e-11,-0.0017950312087504,0.0017950312382107,-0.0016710973520004,0.0016710974108651,-0.001816426372493,0.0018164263404648,-0.0018164268063705,0.0018164268664908,-0.0017761571014224,0.0017761570980968,-0.0017761571411557,0.0017761571711001,-0.0017761570993055,0.0017761571275951,-0.0017761571390321,0.0017761572006036,-0.0016710980180943,0.0016710980173168,-0.001671097329689,0.0016710974200111,-0.0018164264274851,0.0018164264284761,-0.0018164268613694,0.0018164269545024,-0.0016710980404224,0.0016710980081678,-3.4229996469898e-11,-3.4226586018938e-11,-0.00094156204011064,0.00094156235905978,9.0120757777123e-11,4.0502541682507e-11,-0.00068686881080971,0.0006868690317968,-0.00075206057083428,0.00075206132241728,-0.00075206059956169,0.00075206135113569,-0.00068686893690697,0.00068686925491211,-0.00068686876088208,0.00068686907883899,-0.00075206052636696,0.00075206136710109,-0.00075206055497879,0.00075206139568045,-0.0012313920600067,0.0012313920104653,-0.0012313920759857,0.0012313919941877,-0.0012313920038879,0.0012313919543458,-0.0012313920199117,0.001231391938108,-0.0011367953668042,0.0011367951527504,-0.0011367955774507,0.0011367953634032,-0.0011367955603818,0.0011367953797678,-0.0011367953505707,0.0011367951699645,-0.00068686898431342,0.00068686920532308,0.81381076464073,123866,2964,0.0044872922107273,0.0074488668798934,0.003917950518959,29.275810880098,0.00014940648704078,0.00014940648704078,0.00014940648704078,3239995.6752698,0.01598180494787
34391759,0.978201020398,0.016599961132077,0.0049665587182244,0.0069778996707921,0.0046555027430607,-0.0010910677993224,0.0010910678953097,7.1646766240472e-12,7.1656724171558e-12,1.1755677333156e-10,8.1440946351169e-11,-0.00035604344868471,0.00035604355524595,-0.00059552750773571,0.00059552865686687,-0.00059552765677607,0.00059552880592273,-0.00035604372611282,0.00035604390780876,-0.00035604341028436,0.0003560435919708,-0.00059552747347953,0.00059552869101457,-0.00059552762309817,0.00059552884063721,-0.0014251145037334,0.0014251143757592,-0.0014251145936261,0.0014251144656535,-0.001425114514314,0.0014251143647223,-0.0014251146042609,0.0014251144546709,-0.0012901718688794,0.0012901718485624,-0.0012901720404835,0.0012901720201677,-0.0012901718569402,0.001290171860626,-0.0012901720286464,0.001290172032335,-0.00035604376271089,0.00035604386928989,-4.2136930392759e-12,3.0010506762118e-11,-3.9477049959104e-12,2.8557363217156e-11,-0.0018233477553985,0.001823347780359,-0.0016960736056118,0.0016960736506311,-0.0018471117667309,0.0018471117474423,-0.0018471123771542,0.0018471124259713,-0.0018024678163214,0.0018024678213976,-0.0018024679473471,0.0018024679718744,-0.0018024678217543,0.0018024678465557,-0.0018024679527772,0.0018024679970353,-0.0016960740598474,0.0016960740639422,-0.0016960735340342,0.0016960736013891,-0.0018471118270392,0.001847111830159,-0.0018471124374874,0.0018471125086889,-0.0016960741314282,0.0016960741131899,-1.4139197925591e-10,-1.4138857020565e-10,-0.00094727817462542,0.00094727779516645,-7.7658666676628e-11,-1.0800457561523e-10,-0.00068406179946093,0.00068406152058195,-0.00075125760491802,0.0007512574168361,-0.00075125751978128,0.00075125733168869,-0.00068406200066423,0.00068406179140133,-0.00068406176411115,0.0006840615548053,-0.00075125757735553,0.00075125744412606,-0.00075125749257466,0.00075125735931013,-0.0012450579056893,0.0012450575824651,-0.001245057914422,0.0012450575730933,-0.0012450578835592,0.0012450575603314,-0.0012450578926837,0.0012450575513518,-0.0011485198322138,0.0011485194338271,-0.0011485200451335,0.0011485196467419,-0.0011485200344613,0.0011485196577802,-0.0011485198213402,0.001148519444666,-0.00068406203521003,0.00068406175636819,0.7296115327816,123866,2964,0.0045399217054554,0.0075658888634179,0.0039418307734415,31.392511497543,0.00016634009198034,0.00016634009198034,0.00016634009198034,3113851.9466882,0.016178523736421
35391759,0.98667554124202,0.016732353969661,0.0050078373270813,0.0070324202034902,0.0046920964390891,-0.0011072727739155,0.0011072724210546,-7.4270563320566e-11,-7.4269586350412e-11,-6.5323207729667e-11,-3.0404606645432e-11,-0.00036984004999223,0.00036983957892769,-0.00060962730254317,0.00060962750186833,-0.00060962765128537,0.00060962785062619,-0.00036984039987094,0.00036983987431073,-0.00036984007551084,0.00036983954994314,-0.00060962733657109,0.0006096274675757,-0.00060962768540626,0.00060962781641471,-0.0014436921110246,0.0014436918097287,-0.0014436923159615,0.0014436920146676,-0.0014436920977199,0.0014436918228533,-0.0014436923031621,0.001443692028298,-0.0013067578963374,0.0013067578049911,-0.0013067580760915,0.0013067579847455,-0.0013067579079864,0.0013067577945234,-0.0013067580865817,0.0013067579731214,-0.00036984037107833,0.00036983990003077,1.6917416537479e-11,-1.505689643759e-11,2.3722615371267e-11,-2.2233701813355e-11,-0.0018435371207898,0.001843537122587,-0.0017118776373112,0.0017118776057303,-0.0018651679538288,0.001865168001794,-0.0018651688618493,0.0018651688490867,-0.0018256047812523,0.0018256048156405,-0.0018256050757458,0.0018256050728434,-0.0018256048226411,0.0018256048289719,-0.0018256051171325,0.0018256050861773,-0.0017118777564802,0.0017118777910889,-0.0017118775032349,0.0017118774491706,-0.0018651680359664,0.0018651680533556,-0.0018651689440111,0.0018651689006509,-0.0017118778905599,0.0017118779476544,-2.5704831196449e-10,-2.570448835729e-10,-0.0009610715033131,0.00096107031454621,-3.0701577966544e-10,-2.5448558974286e-10,-0.00069942062395167,0.00069941986389953,-0.00076601560898864,0.00076601438910226,-0.00076601536236105,0.00076601414246373,-0.00069942096509148,0.00069942012303198,-0.00069942066558081,0.00069941982347975,-0.00076601566048797,0.00076601433674264,-0.00076601541481839,0.00076601409103761,-0.0012597333630811,0.0012597327089462,-0.0012597333432052,0.0012597327277265,-0.001259733384701,0.0012597327305623,-0.0012597333656833,0.001259732750201,-0.0011637476513992,0.0011637471073997,-0.0011637478952767,0.0011637473512722,-0.0011637479124566,0.0011637473359341,-0.0011637476670279,0.0011637470905122,-0.00069942092481819,0.00069942016480484,0.65593630488581,123866,2964,0.0046071550101883,0.0076492974530848,0.0039990983596264,35.838558806255,0.00020190847045004,0.00020190847045004,0.00020190847045004,3099595.9541097,0.016389819317626
36391759,0.99217217757543,0.016822287462683,0.0050357364003075,0.0070695511070779,0.0047169999552973,-0.0011160032902262,0.0011160034830739,3.4427149921261e-11,3.4428126567895e-11,1.2410532134409e-10,1.4013390396131e-10,-0.00037604580438189,0.00037604609135616,-0.00061655928436139,0.00061656066506556,-0.00061655940759795,0.00061656078831745,-0.00037604614474696,0.00037604640069702,-0.00037604581920594,0.00037604607514745,-0.00061655930135135,0.00061656064722895,-0.00061655942534784,0.00061656077122923,-0.0014539029746338,0.0014539028779257,-0.0014539030485181,0.0014539029518122,-0.0014539029687737,0.0014539028841583,-0.0014539030425324,0.0014539029579192,-0.0013160156740844,0.0013160157206111,-0.0013160158333642,0.0013160158798914,-0.0013160156793225,0.0013160157147957,-0.0013160158392301,0.0013160158747058,-0.00037604612869013,0.00037604641568248,1.2345052514179e-11,-6.1446117936805e-12,2.1651566110988e-11,-1.5989680785419e-11,-0.0018550481674005,0.0018550481733704,-0.0017215212510559,0.0017215212256804,-0.001876340714871,0.0018763407513912,-0.0018763413499049,0.0018763413504553,-0.0018380183200146,0.0018380183453117,-0.0018380184699246,0.0018380184698857,-0.001838018349426,0.0018380183611432,-0.0018380184993336,0.00183801848572,-0.0017215216816582,0.0017215217183812,-0.0017215212077876,0.0017215211698767,-0.0018763407973976,0.0018763408100107,-0.0018763414324562,0.0018763414090772,-0.0017215217249298,0.0017215217741905,-1.0484947255294e-10,-1.0484604276066e-10,-0.00096843494829991,0.00096843472633748,-6.788740469668e-11,-2.9227236561809e-11,-0.00070719220604175,0.00070719212980334,-0.00077345685686972,0.00077345694271793,-0.00077345679159077,0.00077345687742799,-0.00070719246200111,0.00070719231605662,-0.0007071922402484,0.00070719209426242,-0.00077345689754208,0.00077345690183354,-0.00077345683258616,0.00077345683684229,-0.0012677324579373,0.0012677321862027,-0.0012677324440302,0.0012677321995403,-0.0012677324277464,0.0012677321560081,-0.0012677324141677,0.0012677321696743,-0.0011720976703602,0.0011720973640513,-0.0011720978898103,0.0011720975834966,-0.0011720979023115,0.0011720975712055,-0.0011720976829107,0.0011720973518114,-0.00070719242663491,0.00070719235043506,0.68699515304475,123866,2964,0.0046433916410231,0.0076968592523248,0.004029674241819,37.525058721134,0.00021540046976907,0.00021540046976907,0.00021540046976907,3103982.1140154,0.016506080642304
37391759,0.99541745957766,0.01687484745869,0.0050520246596709,0.0070912755091237,0.0047315472898949,-0.0011177608976383,0.0011177614002488,9.5690625570015e-11,9.569166844992e-11,2.2069675407889e-10,2.0934643855118e-10,-0.00036943960342588,0.00036944028843183,-0.00061326705492241,0.00061326903666578,-0.00061326707065299,0.00061326905241078,-0.0003694399482691,0.00036944064949099,-0.00036943959520353,0.00036944029641786,-0.00061326704574903,0.00061326904477239,-0.00061326706266822,0.00061326906169453,-0.0014586873468039,0.001458687388599,-0.0014586873526064,0.0014586873944037,-0.0014586873502792,0.0014586873855197,-0.0014586873556838,0.0014586873909261,-0.0013196529030764,0.0013196530502467,-0.0013196530221081,0.0013196531692788,-0.0013196528993111,0.0013196530527602,-0.0013196530197117,0.0013196531731634,-0.00036943995629894,0.00036944064132375,5.056589524661e-12,1.0522961644716e-11,1.3507712260427e-11,1.2385919376018e-12,-0.0018644630524677,0.0018644630675331,-0.0017316819501588,0.0017316819501595,-0.0018877660603562,0.0018877660742122,-0.0018877665836813,0.0018877666081508,-0.0018452176419329,0.0018452176573618,-0.0018452177071232,0.0018452177168988,-0.0018452176532733,0.0018452176732053,-0.0018452177184614,0.001845217732745,-0.0017316825287817,0.0017316825582376,-0.0017316819256782,0.0017316819294564,-0.0018877661186802,0.001887766125925,-0.0018877666420308,0.0018877666598671,-0.0017316825532647,0.0017316825789455,-1.6938840280057e-11,-1.6935469897726e-11,-0.00096725027812232,0.00096725061127768,5.8450670776542e-11,6.8193736000234e-11,-0.00070013105514825,0.00070013137326655,-0.00076809738196996,0.0007680981832536,-0.00076809739781953,0.00076809819909076,-0.00070013124505985,0.00070013154255093,-0.0007001310641706,0.00070013136162002,-0.00076809739566886,0.00076809816980129,-0.00076809741137438,0.00076809818547072,-0.0012706217211209,0.0012706216959247,-0.0012706217173646,0.0012706216993601,-0.001270621662613,0.0012706216374131,-0.001270621658932,0.0012706216409241,-0.0011735427924105,0.0011735426574796,-0.0011735430176217,0.0011735428826852,-0.0011735430206029,0.0011735428791848,-0.0011735427961225,0.0011735426547111,-0.00070013123365494,0.00070013155181175,0.68009907945379,123866,2964,0.0046507874855106,0.007735757472833,0.0040248330879703,37.635448036719,0.00021628358429375,0.00021628358429375,0.00021628358429375,2980683.1788528,0.016548271204241
38391759,0.9972914698163,0.016906903187485,0.005061989066276,0.0071044421299841,0.0047404719912252,-0.0011181922446359,0.0011181928425927,1.0509367272514e-10,1.0509472398715e-10,2.9569450877985e-10,2.340445021967e-10,-0.00036550956763145,0.00036551036893359,-0.00061041354526163,0.00061041578776256,-0.0006104134871814,0.00061041572969762,-0.00036550982865813,0.00036551074285397,-0.00036550951129406,0.00036551042548205,-0.00061041348737593,0.00061041584509148,-0.00061041343045171,0.00061041578817125,-0.0014609267714226,0.0014609268309876,-0.0014609267414407,0.001460926801008,-0.0014609267914595,0.0014609268109194,-0.0014609267609589,0.001460926780421,-0.0013210705103489,0.0013210706091637,-0.0013210706649322,0.0013210707637475,-0.0013210704897967,0.001321070628241,-0.0013210706461273,0.0013210707845744,-0.00036550988501386,0.00036551068633316,-1.0904410230694e-11,4.3860021363807e-11,-5.4357713637102e-12,3.696665987682e-11,-0.0018677636558323,0.0018677636877141,-0.0017352865109344,0.0017352865642144,-0.0018923529334842,0.0018923528980599,-0.0018923532776319,0.0018923533490774,-0.0018472646886139,0.0018472646849428,-0.0018472646941487,0.0018472647224801,-0.0018472646853821,0.0018472647200867,-0.0018472646909146,0.0018472647576267,-0.0017352872548913,0.0017352872645256,-0.0017352865224444,0.0017352866126052,-0.0018923529947806,0.001892352989395,-0.0018923533389529,0.0018923534404149,-0.0017352872433844,0.0017352872161405,-7.6168101425609e-13,-7.5831780449984e-13,-0.00096628273917613,0.00096628325690463,1.459305357973e-10,1.0053284359946e-10,-0.00069648974971817,0.0006964901154392,-0.00076482294378084,0.00076482397864592,-0.00076482302486906,0.00076482405972321,-0.00069648987313766,0.00069649032406699,-0.00069648970544648,0.00069649015633427,-0.00076482290405003,0.0007648240186739,-0.00076482298492748,0.00076482409951591,-0.0012716215596572,0.0012716215881182,-0.0012716215746353,0.0012716215729798,-0.0012716214905419,0.001271621518999,-0.0012716215054318,0.0012716215037726,-0.0011740923177742,0.0011740921368642,-0.0011740925053719,0.0011740923244569,-0.0011740924896465,0.0011740923390615,-0.0011740923032883,0.0011740921527098,-0.00069648991440464,0.0006964902801644,0.71704436579938,123866,2964,0.0046526270193073,0.007749394361042,0.0040208565138401,37.196046835572,0.00021276837468457,0.00021276837468457,0.00021276837468457,2949581.5834617,0.016559981196095
38880000,0.99797558094547,0.016919045187893,0.0050657643203811,0.0071094217674124,0.0047438591000998,-0.0011178614235013,0.0011178619306873,8.4135134464689e-11,8.4137899762564e-11,2.7776931084558e-10,2.1070900578598e-10,-0.00036173621970376,0.00036173690036748,-0.00060807432190495,0.00060807640317773,-0.00060807428563922,0.00060807636720138,-0.00036173645797869,0.00036173726344784,-0.00036173615702029,0.00036173696273798,-0.00060807425854427,0.00060807646623063,-0.00060807422382573,0.00060807643169304,-0.0014618706037746,0.0014618706166955,-0.0014618705888954,0.0014618706018154,-0.0014618706254396,0.0014618705948756,-0.0014618706100396,0.001461870579435,-0.0013215920471325,0.0013215920968118,-0.0013215922189518,0.0013215922686259,-0.0013215920248226,0.0013215921178255,-0.0013215921982304,0.0013215922911906,-0.00036173652042619,0.00036173720072049,-1.3056795006228e-11,4.8048910374064e-11,-8.2786829154491e-12,4.1579809014457e-11,-0.0018710665349257,0.0018710665686581,-0.0017388447968257,0.0017388448570835,-0.0018962958580897,0.0018962958158322,-0.001896296202665,0.0018962962798919,-0.0018497733558301,0.0018497733498833,-0.0018497733761921,0.0018497734066128,-0.001849773354052,0.001849773390265,-0.0018497733745505,0.0018497734469782,-0.0017388455271767,0.001738845533322,-0.0017388448061209,0.001738844907712,-0.0018962959250833,0.0018962959179661,-0.0018962962698012,0.0018962963820134,-0.0017388455177842,0.0017388454830309,-2.8437085884193e-11,-2.8434654929046e-11,-0.00096450604382227,0.00096450640690766,1.2149261688101e-10,6.9752880376797e-11,-0.0006920388572747,0.00069203909360322,-0.0007612674750571,0.00076126830882153,-0.00076126754005542,0.00076126837375102,-0.00069203898769203,0.00069203932396151,-0.00069203880567823,0.00069203914214737,-0.00076126742854521,0.00076126835494009,-0.00076126749361698,0.00076126841998784,-0.0012717343983202,0.0012717343495824,-0.0012717344154216,0.0012717343324921,-0.0012717343364571,0.0012717342876663,-0.0012717343534767,0.0012717342703867,-0.0011735376129711,0.0011735373605677,-0.0011735377921245,0.0011735375396668,-0.0011735377740726,0.0011735375566374,-0.0011735375962252,0.0011735373788024,-0.00069203903635434,0.00069203927254636,0.74364572121898,123866,2964,0.0046512999658186,0.0077630302922846,0.0040135177451335,37.193651335324,0.00021274921068259,0.00021274921068259,0.00021274921068259,2877157.5036638,0.016565058884923
