time,ASR_ext,ASR_strain,ASR_strain_xx,ASR_strain_yy,ASR_strain_zz,disp_x_101,disp_x_102,disp_x_103,disp_x_104,disp_x_105,disp_x_106,disp_x_p10_neg,disp_x_p10_pos,disp_x_p11_neg,disp_x_p11_pos,disp_x_p12_neg,disp_x_p12_pos,disp_x_p13_neg,disp_x_p13_pos,disp_x_p14_neg,disp_x_p14_pos,disp_x_p15_neg,disp_x_p15_pos,disp_x_p16_neg,disp_x_p16_pos,disp_x_p1_neg,disp_x_p1_pos,disp_x_p2_neg,disp_x_p2_pos,disp_x_p3_neg,disp_x_p3_pos,disp_x_p4_neg,disp_x_p4_pos,disp_x_p5_neg,disp_x_p5_pos,disp_x_p6_neg,disp_x_p6_pos,disp_x_p7_neg,disp_x_p7_pos,disp_x_p8_neg,disp_x_p8_pos,disp_x_p9_neg,disp_x_p9_pos,disp_y_101,disp_y_102,disp_y_103,disp_y_104,disp_y_105,disp_y_106,disp_y_p10_neg,disp_y_p10_pos,disp_y_p11_neg,disp_y_p11_pos,disp_y_p12_neg,disp_y_p12_pos,disp_y_p1_neg,disp_y_p1_pos,disp_y_p2_neg,disp_y_p2_pos,disp_y_p3_neg,disp_y_p3_pos,disp_y_p4_neg,disp_y_p4_pos,disp_y_p5_neg,disp_y_p5_pos,disp_y_p6_neg,disp_y_p6_pos,disp_y_p7_neg,disp_y_p7_pos,disp_y_p8_neg,disp_y_p8_pos,disp_y_p9_neg,disp_y_p9_pos,disp_z_101,disp_z_102,disp_z_103,disp_z_104,disp_z_105,disp_z_106,disp_z_p10_neg,disp_z_p10_pos,disp_z_p11_neg,disp_z_p11_pos,disp_z_p12_neg,disp_z_p12_pos,disp_z_p13_neg,disp_z_p13_pos,disp_z_p14_neg,disp_z_p14_pos,disp_z_p15_neg,disp_z_p15_pos,disp_z_p16_neg,disp_z_p16_pos,disp_z_p1_neg,disp_z_p1_pos,disp_z_p2_neg,disp_z_p2_pos,disp_z_p3_neg,disp_z_p3_pos,disp_z_p4_neg,disp_z_p4_pos,disp_z_p5_neg,disp_z_p5_pos,disp_z_p6_neg,disp_z_p6_pos,disp_z_p7_neg,disp_z_p7_pos,disp_z_p8_neg,disp_z_p8_pos,disp_z_p9_neg,disp_z_p9_pos,humidity,ndof,nelem,strain_xx,strain_yy,strain_zz,temp,thermal_strain_xx,thermal_strain_yy,thermal_strain_zz,vonmises,vstrain
14391759,0,0,0,0,0,0,0,0,0,0,0,0,0,0,0,0,0,0,0,0,0,0,0,0,0,0,0,0,0,0,0,0,0,0,0,0,0,0,0,0,0,0,0,0,0,0,0,0,0,0,0,0,0,0,0,0,0,0,0,0,0,0,0,0,0,0,0,0,0,0,0,0,0,0,0,0,0,0,0,0,0,0,0,0,0,0,0,0,0,0,0,0,0,0,0,0,0,0,0,0,0,0,0,0,0,0,0,0,0,0,0,0,0,0,0,0,0,0,0,0,0,0,0
15391759,0.10005767292504,0.001751398305997,0.00058379943533233,0.00058379943533233,0.00058379943533233,-0.00016233739687338,0.00016233591986333,-3.0717345118692e-10,-3.0717342325395e-10,-5.6416003516583e-10,-3.5757813959358e-10,-0.00014155932443081,0.00014155730540915,-0.00014776014823633,0.00014775722972123,-0.00014776084267789,0.00014775792416018,-0.00014155877606792,0.00014155638063183,-0.00014155950803827,0.00014155711258657,-0.00014776034550309,0.00014775703247384,-0.00014776103650171,0.00014775772346952,-0.00017269973338241,0.00017269920889536,-0.00017270003366506,0.00017269950917811,-0.00017269966402471,0.00017269927899586,-0.00017269996594751,0.00017269958091877,-0.00016640397834548,0.00016640367328747,-0.00016640421656448,0.00016640391150738,-0.00016640404668725,0.00016640360777338,-0.00016640428124774,0.00016640384233678,-0.00014155858537984,0.00014155656637658,6.2689480408817e-11,-1.3106013989088e-10,6.0787547154036e-11,-1.2647535581111e-10,-0.00017721295659526,0.00017721289067431,-0.00017277862367459,0.00017277844320487,-0.00017944537874982,0.00017944556384631,-0.00017944633852086,0.0001794461460523,-0.00017649981804715,0.00017649989031324,-0.00017650007247982,0.00017650000976543,-0.00017649984312794,0.00017649977535321,-0.00017650009755573,0.00017649989479643,-0.00017277758217849,0.00017277763177173,-0.00017277839731126,0.00017277808387259,-0.00017944532695063,0.00017944538425793,-0.00017944628673631,0.00017944596647186,-0.00017277780852887,0.00017277799111018,-3.8707802654716e-10,-3.8707805067831e-10,-0.00016285636053299,0.00016285422832877,-5.9286279896316e-10,-3.9628623459153e-10,-0.00015392565789271,0.00015392412102078,-0.00015731753210719,0.00015731498782738,-0.00015731693767081,0.00015731439341126,-0.00015392647584936,0.00015392457954091,-0.00015392584319768,0.00015392394687976,-0.00015731771741315,0.00015731479840858,-0.00015731712756142,0.0001573142085428,-0.00017126803994857,0.0001712672479444,-0.0001712679716931,0.00017126731388733,-0.00017126821800832,0.00017126742600471,-0.00017126815194791,0.00017126749414317,-0.00016429720823172,0.00016429668611414,-0.00016429715066503,0.00016429662853326,-0.00016429721759586,0.0001642965670899,-0.00016429727008433,0.0001642966195826,-0.00015392630094756,0.00015392476406063,0.70055894083924,123866,2964,0.00067617620069084,0.00073811331955819,0.00067833351948049,27.142900763592,0.00013234320610874,0.00013234320610874,0.00013234320610874,1647496.9266018,0.0020948193473862
16391759,0.18842664834154,0.0033857670135202,0.0011053068679642,0.0011721098833911,0.0011083502621649,-0.00027436169733811,0.00027436054058121,-2.8743459514395e-10,-2.8743280490452e-10,-4.5401464381134e-10,-3.0390653236037e-10,-0.00022205261719647,0.00022205109640528,-0.00023938010735511,0.00023937802411771,-0.00023938074081577,0.00023937865755468,-0.00022205238584611,0.00022205059801724,-0.00022205274557211,0.0002220509576971,-0.0002393802498791,0.00023937787848703,-0.00023938088151608,0.00023937851009155,-0.00029902900172023,0.0002990283956595,-0.00029902936198445,0.00029902875592721,-0.0002990289510206,0.00029902844780605,-0.00029902931251747,0.00029902880930629,-0.00028969943287583,0.00028969903980911,-0.00028969983225874,0.00028969943919654,-0.0002896994814293,0.00028969899287859,-0.00028969987808552,0.00028969938954013,-0.00022205225025772,0.00022205072951427,1.1522028377589e-11,-1.2577549429664e-10,1.0245441137482e-11,-1.2166100748449e-10,-0.00031789903038872,0.00031789891854833,-0.0003068792325589,0.00030687904020388,-0.0003223217110312,0.00032232177364923,-0.00032232236358988,0.00032232216016673,-0.00031549193408168,0.00031549191650569,-0.00031549279415012,0.00031549268693071,-0.00031549253499649,0.00031549242061237,-0.00031549339507261,0.00031549319104338,-0.00030687784851571,0.00030687781885291,-0.00030687922094631,0.00030687893396227,-0.00032232186877798,0.00032232184364745,-0.0003223225213862,0.00032232223020642,-0.00030687786013833,0.00030687792511442,-3.6828232918169e-10,-3.6828060080986e-10,-0.0002747408086027,0.00027473897650288,-5.1093711745708e-10,-3.6982826526139e-10,-0.00025958051605226,0.00025957932800862,-0.00026559580707844,0.00026559380739178,-0.00026559519414168,0.00026559319445851,-0.00025958123931202,0.00025957980124341,-0.00025958064680812,0.00025957920871328,-0.00026559594136759,0.00026559366643301,-0.00026559533563112,0.00026559306067086,-0.00029400038188431,0.00029399948008146,-0.00029400033236981,0.00029399952725417,-0.00029400056135162,0.00029399965954466,-0.00029400051425501,0.00029399970913922,-0.00028341917399774,0.00028341852449848,-0.0002834191217912,0.00028341847229166,-0.00028341916923189,0.00028341842993219,-0.00028341921673845,0.00028341847743469,-0.0002595811189227,0.00025957993087726,0.7587163515091,123866,2964,0.001142538881819,0.0013236945967751,0.0011440997077162,24.452010381771,0.00011081608305417,0.00011081608305417,0.00011081608305417,2569805.9843169,0.0036168725598375
17391759,0.26701784608861,0.0046716578384662,0.0014947912540695,0.001681261320755,0.0014956052636418,-0.00035661604197256,0.00035661561047453,-8.6925282257001e-11,-8.692064273697e-11,-1.0579809335264e-10,-4.2260806902535e-11,-0.00025927800102333,0.00025927761108125,-0.00029172316424875,0.00029172267837188,-0.00029172338921164,0.00029172290333145,-0.00025927801572087,0.00025927751508305,-0.00025927805410057,0.00025927755345068,-0.00029172322499397,0.00029172261448338,-0.00029172345040676,0.00029172283988576,-0.00040151361767426,0.00040151327500023,-0.00040151378496714,0.00040151344229464,-0.00040151359645044,0.00040151329751823,-0.00040151376396859,0.00040151346503503,-0.00038355997283875,0.00038355977609969,-0.00038356016894397,0.00038355997219722,-0.00038355999246432,0.00038355975658096,-0.00038356018766987,0.00038355995177799,-0.00025927795968012,0.00025927756974819,-1.5062776327817e-11,-7.2489308419126e-11,-3.5294156622301e-13,-8.5986904056394e-11,-0.00044046585509783,0.00044046576867967,-0.00042297141220328,0.00042297126165029,-0.00044708920987842,0.000447089205522,-0.00044708941863434,0.00044708930300957,-0.00043656150309719,0.00043656146608102,-0.00043656197255205,0.00043656187669559,-0.00043656185842636,0.00043656178312703,-0.0004365623278733,0.00043656219373221,-0.00042297158826079,0.00042297156660224,-0.00042297144851976,0.00042297125928535,-0.00044708935229522,0.00044708929208925,-0.0004470895610719,0.00044708938958954,-0.00042297155183852,0.00042297156886908,-1.5215364096053e-10,-1.5214895105693e-10,-0.00035488771405681,0.0003548869417362,-1.5071027706625e-10,-5.9636097261106e-11,-0.00032544278698952,0.00032544240232556,-0.00033484838461986,0.00033484801150608,-0.00033484817348869,0.00033484780033327,-0.00032544303036148,0.0003254424845586,-0.00032544286931183,0.00032544232347452,-0.00033484847362311,0.00033484791923984,-0.00033484826538659,0.00033484771093714,-0.00039097593354043,0.00039097534908035,-0.00039097590176281,0.00039097538005021,-0.00039097599453037,0.00039097541021522,-0.00039097596379386,0.00039097544223373,-0.0003720816529789,0.00037208131178562,-0.00037208168139146,0.00037208134018464,-0.00037208171082891,0.00037208131240435,-0.00037208168094651,0.00037208128253303,-0.00032544295108448,0.00032544256642234,0.68097528185715,123866,2964,0.0014848671923812,0.00183356427156,0.0014776282476282,22.117812575952,9.2142500607619e-05,9.2142500607619e-05,9.2142500607619e-05,3299220.2643878,0.0048076188969881
18391759,0.3236216726603,0.0054833806238323,0.0017388371790165,0.0020119982342761,0.0017325452105397,-0.00040256407620799,0.00040256413712097,3.387546449546e-11,3.3880331332075e-11,9.6694388405749e-11,6.7964039568773e-11,-0.0002757027232982,0.00027570298031215,-0.00031829911842669,0.00031829963095077,-0.00031829908986804,0.00031829960239829,-0.00027570300338704,0.00027570332163169,-0.00027570269237029,0.0002757030106122,-0.0003182990907469,0.00031829965661089,-0.00031829906380578,0.0003182996296669,-0.00046191632592425,0.0004619162000581,-0.00046191636179626,0.00046191623592463,-0.00046191633517784,0.00046191619125036,-0.00046191637072519,0.00046191622679231,-0.00043559647637834,0.00043559642198413,-0.00043559657177386,0.00043559651737766,-0.00043559646561495,0.00043559643200981,-0.00043559656139838,0.00043559652778868,-0.00027570303384041,0.00027570329086432,-3.6690459396357e-11,-7.1656687233348e-12,-1.6867034109715e-11,-2.7264624708052e-11,-0.0005129351137183,0.00051293506975558,-0.00048786523743679,0.00048786517262037,-0.00051651745402143,0.0005165173826566,-0.00051651746056508,0.00051651744804687,-0.00051238167925561,0.00051238162850868,-0.00051238193578634,0.00051238187859419,-0.0005123818767448,0.00051238184696346,-0.00051238213326703,0.00051238209703995,-0.00048786577015362,0.00048786574683038,-0.00048786529774097,0.00048786525341837,-0.00051651759450353,0.00051651751813305,-0.00051651760106377,0.00051651758353014,-0.00048786570970727,0.0004878656658984,-1.8333316998684e-11,-1.8328413711895e-11,-0.00039825414346454,0.00039825404483011,3.5744458928375e-11,4.8406584609127e-11,-0.00035883481124839,0.00035883493100832,-0.00037086268258673,0.0003708630559414,-0.00037086269576438,0.00037086306907186,-0.00035883470669094,0.0003588348111324,-0.00035883481817727,0.0003588349225856,-0.00037086269711556,0.00037086304033136,-0.00037086271066441,0.00037086305380518,-0.00044630778385807,0.00044630751258628,-0.00044630777912635,0.00044630751738256,-0.00044630776583574,0.00044630749467657,-0.00044630776127489,0.00044630749965078,-0.00042106684159242,0.00042106667274446,-0.00042106693076997,0.00042106676190886,-0.00042106693356694,0.00042106675877333,-0.00042106684484008,0.0004210666700579,-0.0003588346982359,0.00035883481800568,0.60484717275765,123866,2964,0.0016760618463605,0.0021348927990105,0.0016580606427264,17.517846312362,5.5342770498893e-05,5.5342770498893e-05,5.5342770498893e-05,3813472.7614391,0.0054840626358656
19391759,0.3819715030583,0.0064870249749893,0.0020345833400905,0.0024320101887323,0.0020204314461665,-0.00046995666367639,0.00046995665709907,2.1204827265906e-11,2.1211931519464e-11,8.9223681807178e-11,5.8922030692996e-11,-0.00030637634818262,0.00030637660170534,-0.00036339856762087,0.00036339914797958,-0.00036339854201402,0.00036339912238994,-0.00030637669404321,0.00030637701241798,-0.00030637631567052,0.0003063766340419,-0.00036339853909059,0.00036339917603911,-0.00036339851489906,0.00036339915184932,-0.00054465078446087,0.00054465062074618,-0.00054465079876081,0.00054465063503624,-0.00054465079349079,0.00054465061148109,-0.00054465080758013,0.00054465062555933,-0.00051473665014641,0.00051473658415527,-0.00051473673326402,0.00051473666727581,-0.0005147366394785,0.00051473659468455,-0.00051473672264803,0.00051473667785332,-0.00030637672570125,0.00030637697922848,-2.6203178716759e-11,4.431038683523e-12,-7.8012963485457e-12,-1.4773611779702e-11,-0.00061611997051563,0.00061611994833871,-0.00058542571725591,0.00058542567728454,-0.00061874296004515,0.00061874290878719,-0.00061874308257272,0.00061874309285151,-0.00061531635573271,0.00061531632808394,-0.00061531643745624,0.00061531640325217,-0.00061531636673893,0.00061531635716504,-0.00061531644845705,0.00061531643233221,-0.00058542643442036,0.00058542642927995,-0.00058542568891124,0.00058542566978453,-0.00061874306678905,0.00061874301227693,-0.00061874318933366,0.00061874319634277,-0.00058542646260511,0.00058542643662506,-5.0822671380217e-11,-5.081557506024e-11,-0.00046232382879257,0.0004623236212315,1.3196591529658e-11,2.2751308794016e-11,-0.00041550241243924,0.00041550250187744,-0.00042843545116478,0.00042843576290388,-0.00042843546384263,0.00042843577552772,-0.00041550224123814,0.00041550232240518,-0.00041550241560713,0.00041550249673596,-0.00042843546264724,0.00042843575084832,-0.00042843547515647,0.00042843576328227,-0.00052271287274111,0.00052271256828468,-0.00052271286864369,0.00052271257234584,-0.00052271283895198,0.00052271253456518,-0.00052271283504769,0.00052271253882319,-0.00049576908383931,0.00049576883527852,-0.00049576922402934,0.00049576897545325,-0.00049576922605973,0.00049576897331679,-0.00049576908616918,0.00049576883343863,-0.00041550223620701,0.00041550232565253,0.73021614767059,123866,2964,0.0019564325111127,0.0025637703321711,0.0019245741365435,17.480332667932,5.5042661343456e-05,5.5042661343456e-05,5.5042661343456e-05,4067144.6930879,0.0064656743762186
20391759,0.44614748151531,0.0076364663318182,0.0023645718679264,0.0029357174573884,0.0023361770065034,-0.00054420355278846,0.00054420354902725,1.9744516171525e-11,1.9752413694967e-11,8.9979019063026e-11,5.9932497375403e-11,-0.00032473200461469,0.00032473221535719,-0.0004007398575649,0.00040074051900024,-0.00040073985293005,0.00040074051438271,-0.00032473236709785,0.00032473264169734,-0.00032473197254718,0.00032473224715477,-0.00040073982965564,0.00040074054714889,-0.00040073982627428,0.00040074054377488,-0.00064244844574798,0.00064244827561622,-0.00064244846342542,0.0006424482932786,-0.00064244845447455,0.00064244826641052,-0.00064244847198134,0.00064244828389988,-0.00060625528188984,0.00060625522727092,-0.00060625535301059,0.00060625529839695,-0.00060625527150576,0.00060625523758273,-0.0006062553427633,0.00060625530883804,-0.00032473239795776,0.00032473260872071,-2.0522241736073e-11,9.2535803591043e-12,-3.9918613124064e-12,-8.3231643543658e-12,-0.00074576327207158,0.00074576326026432,-0.00070904571315101,0.00070904568645356,-0.00075206237963605,0.00075206233893256,-0.0007520626433055,0.00075206266266531,-0.00074058622770594,0.00074058620982938,-0.00074058628179013,0.00074058625922014,-0.00074058621603831,0.00074058621535165,-0.00074058627012016,0.00074058626473808,-0.00070904637410661,0.00070904637619473,-0.00070904566805362,0.00070904566149359,-0.00075206247773091,0.0007520624354078,-0.00075206274141393,0.00075206275915331,-0.00070904641904816,0.00070904640099,-6.8787212888305e-11,-6.8779398660113e-11,-0.00053018604462804,0.00053018580125361,-6.8542510117483e-12,7.9800128337327e-14,-0.00046648006436199,0.00046648009397429,-0.00048283595083069,0.00048283618619336,-0.00048283595926686,0.00048283619456288,-0.00046647991768979,0.00046647994412374,-0.0004664800649297,0.00046648009131978,-0.00048283595980879,0.00048283617687777,-0.00048283596800497,0.0004828361849997,-0.00061107532961422,0.00061107501461942,-0.00061107532638865,0.00061107501777293,-0.00061107528486033,0.0006110749698867,-0.00061107528177338,0.00061107497318948,-0.00057873934203733,0.00057873905903256,-0.00057873953133862,0.00057873924832045,-0.00057873953260813,0.00057873924699665,-0.0005787393436223,0.00057873905802531,-0.00046647991512079,0.00046647994477161,0.76377140340812,123866,2964,0.0022653030812332,0.0031023339106123,0.0022068251207824,18.600318283983,6.4002546271868e-05,6.4002546271868e-05,6.4002546271868e-05,4151157.0095981,0.007603355598989
21391759,0.49619266319449,0.0084460968118781,0.0025984350636739,0.0032952258356203,0.0025524359125838,-0.0005884832922315,0.00058848382012585,1.2652901371372e-10,1.2653728663746e-10,2.9926577906234e-10,1.8773485937303e-10,-0.00032964089579876,0.00032964180689084,-0.00041812810400264,0.00041812989851919,-0.00041812787539581,0.00041812966992744,-0.00032964139133786,0.0003296425151564,-0.00032964079086239,0.00032964191468312,-0.00041812799811723,0.00041813000476861,-0.00041812777187871,0.00041812977853514,-0.00070503417092626,0.00070503419049917,-0.00070503408693917,0.0007050341064974,-0.00070503420693116,0.00070503415366247,-0.00070503412220358,0.00070503406891187,-0.00066080893162548,0.00066080898527416,-0.00066080893562233,0.0006608089892797,-0.00066080889431982,0.00066080902146557,-0.00066080889985697,0.00066080902700695,-0.00032964149747321,0.00032964240857339,-4.3117633080024e-11,6.2969118290704e-11,-2.9360645192149e-11,4.707562691511e-11,-0.00082990519443107,0.00082990521274547,-0.00078539906393986,0.00078539911945414,-0.00083573813226232,0.0008357380206655,-0.00083573810123402,0.00083573819835759,-0.00082502258646821,0.00082502254212541,-0.00082502254772156,0.00082502255654511,-0.00082502256497157,0.00082502259250443,-0.00082502252622949,0.00082502260692546,-0.00078540011008939,0.00078540008981197,-0.00078539909403429,0.00078539922178673,-0.00083573823344607,0.00083573817508222,-0.00083573820243869,0.00083573835278126,-0.00078540007983975,0.00078539998731173,5.7770507135956e-11,5.7778629255478e-11,-0.00056823356243447,0.00056823408402624,2.0724784461031e-10,1.2963302643973e-10,-0.00049096618538596,0.00049096672245284,-0.00051068895857175,0.00051069010339264,-0.00051068916789558,0.00051069031265211,-0.00049096578356761,0.00049096647280414,-0.00049096610634267,0.00049096679553306,-0.0005106888874729,0.00051069017563888,-0.00051068909503998,0.00051069038313366,-0.00066500321618053,0.00066500318768754,-0.00066500324211995,0.00066500316239728,-0.00066500311026724,0.00066500308180069,-0.00066500313559009,0.00066500305589909,-0.00062670189941132,0.00062670177796555,-0.00062670211647532,0.00062670199501913,-0.00062670208912012,0.00062670202037092,-0.00062670187417235,0.00062670180543165,-0.00049096585705132,0.00049096639415025,0.6908403174145,123866,2964,0.0024495074406681,0.0034516912307873,0.0023650709482478,15.321311804364,3.7770494434913e-05,3.7770494434913e-05,3.7770494434913e-05,4344093.0675041,0.0083007110674132
22391759,0.54344736491283,0.0092087465653891,0.0028181432863798,0.0036368182277953,0.0027537850512139,-0.00063669239504557,0.00063669274561651,8.5538535709391e-11,8.5547026038253e-11,2.3729794442392e-10,1.2654692457832e-10,-0.0003453412705792,0.00034534187778514,-0.00044420287774181,0.0004442043152167,-0.00044420274618642,0.00044420418367849,-0.00034534166823216,0.00034534249082741,-0.00034534116383237,0.00034534198642731,-0.00044420277218166,0.00044420442201541,-0.00044420264242623,0.00044420429226735,-0.00076882633304227,0.00076882629713813,-0.00076882627073696,0.00076882623482119,-0.0007688263681093,0.00076882626079991,-0.000768826305368,0.00076882619804428,-0.0007176411321855,0.00071764114698147,-0.00071764116935935,0.00071764118416006,-0.00071764109554675,0.00071764118331472,-0.00071764113355118,0.00071764122131922,-0.00034534177504109,0.00034534238225428,-3.6585324902261e-11,6.9542788645139e-11,-2.9461281586526e-11,6.0056740611567e-11,-0.00091271564306267,0.00091271567431017,-0.00086056723098499,0.00086056731279437,-0.00091639406017397,0.0009163939575024,-0.00091639417190574,0.00091639427863032,-0.00090983965326384,0.00090983962055612,-0.00090983952128006,0.00090983954745643,-0.0009098395347648,0.00090983957053786,-0.00090983940278711,0.00090983949744125,-0.00086056825130901,0.0008605682304301,-0.00086056718947657,0.00086056734278313,-0.00091639411066743,0.00091639406919918,-0.00091639422242339,0.00091639439033233,-0.00086056829266221,0.00086056820026614,-8.4634091582186e-12,-8.4549447954755e-12,-0.00061062635119549,0.00061062659682882,1.3841046006722e-10,4.8730081652985e-11,-0.00052369051764011,0.00052369078679361,-0.00054533362760981,0.00054533438521583,-0.0005453337663711,0.00054533452391114,-0.00052369021085762,0.0005236906597993,-0.00052369042523218,0.00052369087411967,-0.00054533354376634,0.00054533446989972,-0.00054533368118557,0.00054533460724498,-0.00072042964365687,0.00072042953846847,-0.00072042967295112,0.00072042950941201,-0.00072042955086246,0.00072042944568943,-0.00072042957987122,0.0007204294163578,-0.00067802197879552,0.000678021745624,-0.00067802221163874,0.00067802197845234,-0.00067802218059143,0.00067802200821794,-0.00067802194917237,0.00067802177681456,-0.00052369029868465,0.00052369056787898,0.69163756941875,123866,2964,0.0026499964755619,0.0037953852768688,0.0025413489396921,14.812428186652,3.3699425493212e-05,3.3699425493212e-05,3.3699425493212e-05,4562638.8583841,0.0090274523074519
23391759,0.5916715039271,0.0099519126021688,0.0030316045449069,0.003972512704841,0.0029477953524209,-0.00068439314139,0.00068439338935272,6.1324892272519e-11,6.133355947833e-11,1.942307275096e-10,1.0116663484787e-10,-0.00035488248265648,0.00035488293276811,-0.00046584658493459,0.00046584786465429,-0.00046584652568825,0.00046584780542525,-0.00035488284377915,0.00035488347658575,-0.00035488239176657,0.00035488302458263,-0.00046584649638019,0.00046584795458526,-0.00046584643851882,0.00046584789673697,-0.00083438435266969,0.00083438427559307,-0.00083438431560373,0.00083438423851529,-0.00083438438178192,0.00083438424524802,-0.00083438434444681,0.00083438420789616,-0.00077504981046386,0.00077504980976386,-0.00077504987007573,0.00077504986938521,-0.00077504977979065,0.00077504984042763,-0.0007750498399149,0.00077504990055825,-0.00035488293398525,0.0003548833840878,-2.690082502179e-11,6.2240490224424e-11,-2.4334811246309e-11,5.7465486868638e-11,-0.00099902736205702,0.00099902739582762,-0.00093910050618357,0.00093910058898201,-0.0010022037009022,0.0010022036201041,-0.0010022039430459,0.00100220403844,-0.0009969481200226,0.00099694809905751,-0.00099694798727978,0.0009969480191091,-0.00099694798717956,0.00099694802227597,-0.00099694785444234,0.00099694794232881,-0.00093910144030001,0.00093910142351882,-0.0009391004378481,0.00093910058042884,-0.0010022037367925,0.0010022037117522,-0.0010022039789608,0.0010022041300932,-0.00093910150848069,0.00093910143189766,-5.0499353398903e-11,-5.0490628398902e-11,-0.00065148088285786,0.00065148094546133,8.2625000899703e-11,1.3670728912733e-12,-0.00055129818582153,0.00055129829929501,-0.00057631794816743,0.00057631845444327,-0.00057631803269311,0.00057631853890532,-0.00055129795564367,0.00055129823439331,-0.00055129810115248,0.00055129837984712,-0.00057631787204595,0.00057631853113985,-0.00057631795568252,0.00057631861470399,-0.00077674243148903,0.00077674226026396,-0.0007767424576781,0.00077674223402216,-0.0007767423516975,0.00077674218049501,-0.00077674237780885,0.00077674215418072,-0.00072867657172567,0.00072867627445481,-0.00072867681600223,0.00072867651872233,-0.00072867678796497,0.00072867654599331,-0.00072867654464836,0.00072867630268622,-0.00055129803665169,0.0005512981501564,0.66282300645257,123866,2964,0.0028483757932904,0.0041534722389805,0.0027112284688933,15.632826498751,4.0262611990011e-05,4.0262611990011e-05,4.0262611990011e-05,4638766.0315446,0.0097606773367071
24391759,0.64440818187852,0.010800977893045,0.0032747067014176,0.0043589379846075,0.0031673332070201,-0.0007415733867225,0.00074157348159392,2.7223053530872e-11,2.7231789469877e-11,1.2995611389316e-10,6.6160715585553e-11,-0.00037047520554276,0.00037047543002039,-0.0004947359826065,0.0004947370034771,-0.00049473602387255,0.00049473704476906,-0.000370475527512,0.00037047588035993,-0.0003704751411789,0.00037047549402319,-0.00049473592215432,0.00049473706520598,-0.00049473596433858,0.00049473710740032,-0.00091089228024157,0.00091089214307731,-0.00091089228935844,0.0009108921521772,-0.00091089229962403,0.00091089212263617,-0.00091089230867218,0.00091089213166754,-0.00084368931160477,0.00084368928785512,-0.00084368940308464,0.00084368937934155,-0.00084368929065343,0.00084368930910702,-0.00084368938225123,0.00084368940070504,-0.0003704755903042,0.00037047581478468,-1.5186823817663e-11,4.6087054068457e-11,-1.465027462799e-11,4.3710826110958e-11,-0.0011000642871994,0.001100064316846,-0.0010317239329327,0.0010317239984825,-0.0011023640906428,0.0011023640408161,-0.0011023645000263,0.0011023645718859,-0.0010987293225145,0.0010987293155168,-0.001098729243908,0.0010987292731271,-0.0010987292105129,0.0010987292400199,-0.00109872913191,0.0010987291976303,-0.0010317246972758,0.0010317246896683,-0.0010317238409951,0.0010317239472933,-0.0011023641236958,0.0011023641136663,-0.0011023645331064,0.0011023646447405,-0.0010317247890535,0.0010317247406802,-1.0408327078708e-10,-1.0407440609833e-10,-0.00070046145071227,0.00070046123989212,-1.7383282629119e-12,-5.8385387984122e-11,-0.00058689098190371,0.000586890884723,-0.0006150983658734,0.00061509850739578,-0.00061509837048513,0.00061509851194007,-0.00058689086863571,0.00058689089149165,-0.00058689092057867,0.00058689094336931,-0.00061509831304892,0.00061509856036418,-0.00061509831738185,0.0006150985646251,-0.00084238757989227,0.00084238730461653,-0.00084238759753775,0.00084238728658736,-0.00084238752315352,0.00084238724789291,-0.00084238754098138,0.00084238723005176,-0.00078950223471268,0.00078950186490781,-0.00078950248576377,0.00078950211594446,-0.00078950246614037,0.0007895021354828,-0.00078950221542453,0.00078950188478037,-0.00058689092764033,0.00058689083049637,0.69344629843763,123866,2964,0.0030861335527584,0.0045724635647018,0.0029148670445538,17.852424566067,5.8019396528539e-05,5.8019396528539e-05,5.8019396528539e-05,4702319.1627685,0.010629899965687
25391759,0.69908550030461,0.011767368504889,0.0035496137665732,0.0048037176635409,0.0034140370747746,-0.00080353276640846,0.00080353287910076,2.9971870732864e-11,2.9980707992303e-11,1.3187247595991e-10,7.7962925271443e-11,-0.00037998559854519,0.00037998582367676,-0.00052101446092171,0.0005210155607938,-0.00052101452835136,0.00052101562824749,-0.00037998592113706,0.00037998625490995,-0.00037998554387355,0.00037998587766539,-0.0005210144099644,0.00052101561259848,-0.00052101447825665,0.00052101568089422,-0.00099612129516674,0.00099612116604525,-0.00099612132324655,0.00099612119411061,-0.00099612131150413,0.00099612114886855,-0.00099612133950822,0.00099612117685445,-0.00092131936812879,0.00092131936073475,-0.00092131947053499,0.0009213194631444,-0.00092131935036297,0.00092131937864126,-0.00092131945299889,0.00092131948128068,-0.00037998597424487,0.00037998619936281,-1.1236413499986e-11,4.0163337568857e-11,-1.0473842435715e-11,3.7784669124331e-11,-0.0012175085361327,0.001217508563957,-0.0011412106410075,0.001141210698233,-0.0012217978841519,0.0012217978455507,-0.0012217983593661,0.0012217984228568,-0.001213673045298,0.0012136730423464,-0.0012136730318429,0.0012136730590758,-0.0012136729831181,0.0012136730109617,-0.0012136729696666,0.0012136730276909,-0.001141211306394,0.0011412113036366,-0.0011412105623467,0.0011412106537241,-0.0012217979273515,0.0012217979218462,-0.0012217984025935,0.0012217984991606,-0.001141211384891,0.0011412113479696,-1.0844300491454e-10,-1.0843411982384e-10,-0.00075155223812479,0.00075155200282419,-1.9371506096139e-11,-6.5885578704032e-11,-0.00062025981901605,0.00062025968570496,-0.00065289168889442,0.00065289176484752,-0.00065289167397415,0.00065289174985937,-0.00062025976360399,0.00062025973030433,-0.00062025976787542,0.00062025973451003,-0.00065289164593932,0.00065289180792705,-0.00065289163089535,0.000652891792815,-0.0009143285951765,0.00091432831129223,-0.0009143286095219,0.000914328296521,-0.00091432854598169,0.00091432826211306,-0.00091432856051402,0.00091432824753711,-0.00085626504074828,0.00085626467608385,-0.00085626529413022,0.00085626492944078,-0.00085626527787181,0.00085626494562135,-0.00085626502481455,0.00085626469256691,-0.00062025981271476,0.00062025967942433,0.76207065498803,123866,2964,0.0033437804772017,0.0050592420689763,0.0031272876822177,19.834903685938,7.3879229487503e-05,7.3879229487503e-05,7.3879229487503e-05,4631664.8797916,0.011597474303358
26391759,0.74926147598605,0.012726541926,0.0038228264854502,0.005247529550601,0.0036561858899492,-0.00086056689497453,0.00086056719842563,6.3417368966439e-11,6.3426260665392e-11,2.0493372442274e-10,1.3208493553559e-10,-0.00038167632798759,0.00038167679539403,-0.00054025291388584,0.00054025444578798,-0.00054025291644872,0.00054025444837824,-0.00038167666745532,0.00038167727668557,-0.00038167625707152,0.00038167686631399,-0.00054025284478835,0.00054025451534911,-0.00054025284852495,0.00054025451909891,-0.0010774506534755,0.0010774505923861,-0.001077450655432,0.0010774505943286,-0.0010774506763683,0.0010774505687431,-0.0010774506780502,0.0010774505704088,-0.00099513269362999,0.00099513272390318,-0.00099513279069653,0.00099513282097236,-0.00099513266953035,0.00099513274765352,-0.00099513276736094,0.00099513284548886,-0.00038167673758232,0.00038167720497738,-1.6737459211522e-11,5.1909735959743e-11,-1.6248664463719e-11,4.9660965984409e-11,-0.0013336584567965,0.0013336584906864,-0.0012497670512411,0.0012497671256044,-0.0013413273339049,0.0013413272787781,-0.0013413277226213,0.0013413278028574,-0.0013256894052,0.0013256893947582,-0.001325689396261,0.0013256894296069,-0.0013256893670852,0.0013256894008021,-0.0013256893581532,0.0013256894356498,-0.0012497677916041,0.0012497677838855,-0.0012497670065676,0.0012497671269135,-0.0013413273840479,0.001341327374149,-0.0013413277727897,0.0013413278982343,-0.001249767836114,0.0012497677823943,-6.4972189987945e-11,-6.4963151126208e-11,-0.00079584137724313,0.00079584141717985,5.1107166314092e-11,-1.4485185906631e-11,-0.00064451372805587,0.00064451377185,-0.00068237322037809,0.00068237362301028,-0.00068237325909849,0.00068237366166217,-0.00064451366236363,0.00064451383965703,-0.00064451365971287,0.00064451383694052,-0.00068237315961509,0.00068237368422454,-0.00068237319791865,0.00068237372245221,-0.00098112848576645,0.00098112830409538,-0.00098112850685092,0.0009811282827898,-0.00098112842299568,0.00098112824133654,-0.00098112844405621,0.00098112822001023,-0.00091754577780221,0.00091754547606688,-0.00091754602444121,0.00091754572268572,-0.00091754600170598,0.0009175457447464,-0.00091754575591911,0.00091754549896667,-0.00064451372780927,0.00064451377163259,0.82335182229769,123866,2964,0.0035809818592215,0.0055403812226784,0.0033114649172549,20.411806942317,7.8494455538536e-05,7.8494455538536e-05,7.8494455538536e-05,4493169.8425541,0.01251099163514
27391759,0.79730119673028,0.01355820530933,0.0040639137150915,0.0056280091319819,0.0038662824622564,-0.00091141590038681,0.00091141604556678,2.5871097361617e-11,2.5879870652422e-11,1.4611189127172e-10,8.6000657341893e-11,-0.00038140968819403,0.00038140990943416,-0.00055573954675174,0.00055574075515631,-0.00055573963837354,0.00055574084680682,-0.00038140996829973,0.00038141031037102,-0.0003814096272692,0.00038140996935537,-0.00055573948950966,0.0005557408129225,-0.00055573958191124,0.00055574090533649,-0.0011519066983058,0.001151906580889,-0.0011519067418686,0.0011519066244389,-0.001151906716674,0.0011519065617118,-0.0011519067601924,0.0011519066052117,-0.0010590745927759,0.0010590745826733,-0.0010590747214559,0.0010590747113612,-0.0010590745729736,0.0010590746026054,-0.0010590747018927,0.0010590747315261,-0.00038141002762584,0.00038141024886143,-1.2320974249753e-11,4.5081350444586e-11,-1.2504835938052e-11,4.3673052979056e-11,-0.0014372810864609,0.0014372811180706,-0.0013437327802005,0.0013437328470565,-0.0014466805435971,0.0014466805004079,-0.0014466810440748,0.0014466811146143,-0.0014279377087874,0.0014279377047949,-0.0014279377307675,0.0014279377623125,-0.0014279376651463,0.0014279376961221,-0.0014279376871325,0.0014279377536395,-0.0013437334052027,0.0013437334005278,-0.0013437327026559,0.0013437328075224,-0.0014466805844544,0.0014466805795625,-0.001446681084958,0.0014466811937745,-0.0013437334825834,0.0013437334398749,-1.1616904586907e-10,-1.1615984207303e-10,-0.00083340188320466,0.00083340165508621,-2.1656115405834e-11,-7.6206122396447e-11,-0.0006610621929007,0.00066106202009661,-0.00070488410179105,0.0007048841427266,-0.00070488406823795,0.00070488410910426,-0.00066106223230538,0.00066106217518467,-0.00066106213405615,0.00066106207686823,-0.00070488405092776,0.00070488419363715,-0.00070488401740056,0.0007048841600395,-0.0010406578500705,0.0010406575717198,-0.0010406578670341,0.0010406575542619,-0.0010406578086808,0.0010406575303412,-0.0010406578258803,0.0010406575131246,-0.00096962781814974,0.00096962744208643,-0.00096962805825581,0.00096962768217846,-0.00096962803937432,0.00096962770102274,-0.0009696277994787,0.00096962746113772,-0.00066106228941767,0.00066106211664642,0.74366212196709,123866,2964,0.0037924639519703,0.0059694040508632,0.0034676916516334,22.213786162967,9.2910289303733e-05,9.2910289303733e-05,9.2910289303733e-05,4335496.3554368,0.013318142299476
28391759,0.84003153107097,0.014401092700255,0.004308885531588,0.0060114809912974,0.0040807261773698,-0.00096439343818485,0.00096439367923551,4.3006908315531e-11,4.3015774779961e-11,1.8012797931682e-10,1.1503838004616e-10,-0.00039402544289565,0.00039402578115665,-0.00058104108293607,0.00058104251131349,-0.00058104114495108,0.00058104257335544,-0.0003940257264404,0.00039402619311063,-0.00039402537835193,0.00039402584503565,-0.00058104102101812,0.00058104257352331,-0.00058104108394477,0.00058104263645739,-0.0012237060537776,0.0012237059728874,-0.0012237060863901,0.0012237060054872,-0.001223706074018,0.0012237059519649,-0.0012237061064825,0.0012237059844122,-0.0011243273169551,0.0011243273295802,-0.001124327450882,0.0011243274635109,-0.0011243272954477,0.0011243273509091,-0.0011243274299222,0.0011243274853863,-0.00039402578979158,0.00039402612804549,-1.3208313671554e-11,4.8313822194793e-11,-1.4040545714349e-11,4.7535213491784e-11,-0.0015360720417624,0.0015360720756725,-0.0014337848012417,0.0014337848740561,-0.001545678965103,0.0015456789184893,-0.0015456794373528,0.0015456795121882,-0.0015264859299601,0.0015264859239382,-0.0015264859624437,0.0015264859966595,-0.0015264859032185,0.001526485936059,-0.0015264859357079,0.0015264860087787,-0.001433785441234,0.0014337854352403,-0.0014337847434605,0.0014337848572028,-0.0015456790117667,0.0015456790072556,-0.0015456794840437,0.0015456796009615,-0.0014337854988511,0.0014337854519072,-9.4784652632896e-11,-9.4775491350266e-11,-0.00087469181788007,0.00087469172949658,1.1796181899446e-11,-4.8947807869245e-11,-0.00069014565030338,0.00069014556557461,-0.00073657391904534,0.00073657413002426,-0.00073657390886839,0.0007365741197737,-0.00069014570062052,0.00069014574149974,-0.00069014558629056,0.00069014562709868,-0.00073657386257909,0.00073657418666396,-0.00073657385232094,0.00073657417633268,-0.0010984384093858,0.0010984381869553,-0.0010984384286303,0.0010984381673094,-0.0010984383622432,0.0010984381398245,-0.0010984383816274,0.0010984381203227,-0.0010244791643083,0.001024478821168,-0.0010244793984613,0.0010244790553029,-0.0010244793774673,0.0010244790759687,-0.0010244791437929,0.0010244788423016,-0.00069014576250339,0.00069014567781373,0.84556057744222,123866,2964,0.0040126837578891,0.0063782078092195,0.0036393455269365,23.413744863654,0.00010250995890923,0.00010250995890923,0.00010250995890923,4327540.3611865,0.014129909331705
29391759,0.87700247910663,0.014956410894541,0.0044736568952987,0.0062599452473779,0.004222808751864,-0.00099476259099718,0.00099476281658368,3.5906114475203e-11,3.5915028849933e-11,1.7512623177118e-10,1.1022232310722e-10,-0.00037750020268125,0.00037750050777087,-0.00057922184241382,0.0005792232481358,-0.00057922191787936,0.00057922332363087,-0.0003775004666363,0.00037750090037153,-0.00037750013789597,0.00037750057164557,-0.00057922178055112,0.0005792233102292,-0.00057922185683467,0.0005792233865256,-0.0012754083660375,0.0012754082796034,-0.0012754084074012,0.0012754083209536,-0.0012754083861653,0.0012754082587844,-0.0012754084274221,0.0012754083000254,-0.0011645029581389,0.001164502960847,-0.0011645031014191,0.0011645031041289,-0.0011645029366908,0.0011645029821821,-0.0011645030804372,0.001164503125931,-0.00037750053007942,0.00037750083515291,-1.3055817094926e-11,4.8472881284176e-11,-1.4546389845716e-11,4.8379582051683e-11,-0.0016098939795493,0.0016098940137834,-0.0015002872231498,0.0015002872976957,-0.0016234094555084,0.0016234094087669,-0.0016234099436669,0.0016234100184275,-0.0015976326896843,0.0015976326837242,-0.0015976327351711,0.0015976327701316,-0.0015976326664364,0.0015976326991764,-0.0015976327119292,0.0015976327855831,-0.0015002878418396,0.0015002878347963,-0.0015002871616807,0.0015002872770665,-0.0016234095017503,0.0016234094979386,-0.0016234099899352,0.0016234101076011,-0.0015002879031426,0.0015002878552407,-1.023112414618e-10,-1.0230207991815e-10,-0.00089186418092971,0.00089186406185431,3.8199614351532e-12,-5.8108545985572e-11,-0.00068328281881777,0.00068328270171049,-0.00073688966859927,0.00073688983161041,-0.00073688964518973,0.00073688980813012,-0.00068328290371163,0.00068328291505282,-0.00068328275352219,0.00068328276480259,-0.00073688961082208,0.00073688988944343,-0.00073688958744778,0.00073688986599472,-0.0011367262308454,0.0011367259977501,-0.0011367262504143,0.0011367259777294,-0.0011367261885806,0.0011367259554939,-0.0011367262083391,0.0011367259356703,-0.0010538563080383,0.0010538559539262,-0.001053856533606,0.0010538561794755,-0.0010538565122492,0.001053856200622,-0.0010538562870277,0.0010538559754105,-0.00068328296717677,0.0006832828500984,0.64299206939106,123866,2964,0.0041391341725372,0.006683583320373,0.0037109242307204,24.735046520031,0.00011308037216025,0.00011308037216025,0.00011308037216025,4005054.5516485,0.014640715135299
30391759,0.90792275275445,0.015360327038635,0.0045961457005277,0.0064355028612436,0.0043286784768632,-0.0010220853897577,0.0010220856186297,3.7404052684807e-11,3.7412972647602e-11,1.7508770630105e-10,1.1003211281507e-10,-0.00039329731543294,0.0003932976148975,-0.00059745310974936,0.00059745451564414,-0.00059745318944226,0.00059745459536452,-0.00039329758008391,0.00039329800841632,-0.00039329725054251,0.00039329767888672,-0.00059745304773167,0.00059745457787376,-0.00059745312823736,0.00059745465839043,-0.00131148053972,0.0013114804586533,-0.0013114805841884,0.0013114805031084,-0.0013114805599292,0.0013114804377916,-0.0013114806042947,0.0013114804821401,-0.0011932442745348,0.0011932442819966,-0.0011932444240339,0.0011932444314997,-0.0011932442530339,0.0011932443033642,-0.0011932444030144,0.0011932444533473,-0.00039329764364481,0.00039329794309807,-1.2549144396959e-11,4.910153127788e-11,-1.4869830181748e-11,4.9847038133672e-11,-0.0016522306770022,0.0016522307123679,-0.0015318316407222,0.0015318317181096,-0.0016596420698539,0.001659642023575,-0.0016596425664317,0.0016596426418396,-0.0016477721132482,0.0016477721076966,-0.0016477721678109,0.0016477722044199,-0.0016477720942372,0.0016477721275582,-0.0016477721488045,0.0016477722242809,-0.0015318322444983,0.0015318322368965,-0.001531831580884,0.0015318316991891,-0.0016596421168473,0.001659642114695,-0.0016596426134516,0.0016596427329657,-0.0015318323041711,0.0015318322556317,-1.0281496678658e-10,-1.0280581935279e-10,-0.00091381431148204,0.00091381418986115,2.9952069102496e-12,-6.0762446248976e-11,-0.00070480329773911,0.00070480317671513,-0.00075804118982475,0.0007580413444372,-0.00075804116437618,0.00075804131891673,-0.00070480338455412,0.00070480339550652,-0.00070480323067369,0.00070480324155794,-0.00075804113027141,0.00075804140405288,-0.00075804110486498,0.000758041378573,-0.0011640279225914,0.0011640276944616,-0.0011640279427688,0.0011640276738253,-0.001164027881165,0.0011640276530444,-0.0011640279015371,0.0011640276326088,-0.0010793526033341,0.0010793522485572,-0.0010793528290594,0.0010793524742639,-0.0010793528070987,0.0010793524960116,-0.0010793525817209,0.0010793522706434,-0.00070480344977811,0.00070480332878907,0.55654009761524,123866,2964,0.0042526010375674,0.0068586146912777,0.003802126595516,26.074984502291,0.00012379987601833,0.00012379987601833,0.00012379987601833,4129118.5702944,0.015026064289651
31391759,0.93396886619649,0.015782233163437,0.004720736884213,0.0066229856690707,0.0044385106101536,-0.0010504873963144,0.0010504874623342,2.7642461424131e-12,2.7731515762406e-12,1.1179772384745e-10,6.7948182281143e-11,-0.00039666545575596,0.0003966655382941,-0.00060914085378669,0.00060914193562889,-0.00060914101100639,0.00060914209287831,-0.00039666571407037,0.00039666588740989,-0.00039666540947953,0.00039666558283564,-0.00060914081206712,0.00060914197754524,-0.00060914096982661,0.0006091421353162,-0.0013508705312054,0.0013508703842656,-0.0013508706186351,0.0013508704716825,-0.0013508705442054,0.0013508703706604,-0.0013508706317187,0.0013508704581571,-0.001228460967593,0.0012284609376283,-0.00122846113362,0.0012284611036589,-0.0012284609531392,0.001228460952351,-0.001228461119176,0.00122846111839,-0.00039666575834578,0.00039666584087183,-6.3748790753496e-12,3.5753453240002e-11,-8.198197649954e-12,3.6259454223195e-11,-0.0017058997558715,0.0017058997842989,-0.0015818379049042,0.001581837962484,-0.0017158999689728,0.0017158999414651,-0.0017159005691678,0.0017159006254072,-0.0016996536720519,0.0016996536742812,-0.0016996537838632,0.0016996538132388,-0.0016996536658804,0.0016996536926828,-0.0016996537776947,0.0016996538316399,-0.001581838390154,0.0015818383885718,-0.0015818378225008,0.0015818379076801,-0.0017159000204817,0.0017159000233147,-0.0017159006207026,0.0017159007072601,-0.001581838472389,0.0015818384431878,-1.4873100021562e-10,-1.4872182356214e-10,-0.00093457236333118,0.00093457196214331,-7.3725155497107e-11,-1.1574266843505e-10,-0.0007163518152172,0.00071635151247786,-0.00077165585209786,0.0007716556550223,-0.00077165576234095,0.00077165556519366,-0.00071635197342087,0.00071635176371253,-0.00071635176815251,0.00071635155837865,-0.0007716558130568,0.00077165569380759,-0.00077165572367208,0.00077165560434791,-0.0011948255951265,0.0011948252502933,-0.0011948256076853,0.0011948252370731,-0.0011948255727656,0.0011948252279412,-0.0011948255857225,0.001194825215125,-0.0011081166468268,0.0011081162271386,-0.0011081168738756,0.0011081164541698,-0.0011081168592741,0.0011081164691416,-0.0011081166320218,0.0011081162418991,-0.00071635201964299,0.0007163517169391,0.69215549466537,123866,2964,0.0043706807689798,0.0070805194853984,0.0038884457605672,28.358762009825,0.0001420700960786,0.0001420700960786,0.0001420700960786,4012448.1799869,0.015458949909317
32391759,0.95362827876637,0.016147794374014,0.0048285711976428,0.0067855230552728,0.0045337001210982,-0.0010678408099472,0.0010678411159532,4.8936442966435e-11,4.8945494278159e-11,1.9706525193888e-10,1.3579095853972e-10,-0.00037333061067076,0.00037333101027384,-0.00059994106818397,0.00059994265734128,-0.00059994112655377,0.00059994271574225,-0.0003733308764802,0.0003733313958142,-0.00037333055040042,0.00037333106973702,-0.00059994100993696,0.00059994271547956,-0.0005999410691889,0.00059994277474357,-0.0013838814488352,0.0013838813986989,-0.0013838814852083,0.0013838814350573,-0.0013838814679881,0.001383881379051,-0.0013838815041913,0.0013838814152362,-0.0012566800459332,0.0012566800738051,-0.0012566801986584,0.0012566802265345,-0.0012566800256375,0.0012566800937118,-0.0012566801790634,0.0012566802471442,-0.00037333093568004,0.00037333133526229,-1.1129319006944e-11,4.6060476036648e-11,-1.3823256925901e-11,4.7271438172181e-11,-0.0017605488302415,0.0017605488640558,-0.0016378304556747,0.0016378305292926,-0.0017794754168507,0.0017794753746014,-0.0017794759006708,0.0017794759710894,-0.0017448915426134,0.0017448915373342,-0.0017448916064631,0.0017448916418292,-0.0017448915369968,0.0017448915684987,-0.0017448916008495,0.0017448916729919,-0.0016378310640382,0.0016378310571586,-0.0016378304100484,0.0016378305216772,-0.001779475467736,0.0017794754673379,-0.0017794759515817,0.0017794760638313,-0.0016378311094952,0.0016378310645856,-8.3839943467865e-11,-8.3830894523716e-11,-0.00093972051389749,0.00093972051449717,2.6459440623428e-11,-3.4486553694751e-11,-0.00069800326318538,0.00069800323437743,-0.00075992067789732,0.00075992099152773,-0.00075992066484438,0.00075992097840399,-0.00069800338461684,0.00069800348029647,-0.00069800319984434,0.0006980032954532,-0.00075992062142734,0.00075992104806728,-0.00075992060840472,0.00075992103496582,-0.001218142896486,0.0012181427199811,-0.0012181429158789,0.0012181427001697,-0.0012181428522649,0.0012181426757704,-0.001218142871813,0.0012181426561208,-0.0011261654079237,0.0011261650924936,-0.001126165621953,0.0011261653065054,-0.0011261656009699,0.0011261653271588,-0.0011261653873981,0.0011261651135939,-0.00069800344606447,0.00069800341728625,0.79325035118638,123866,2964,0.0044431111375623,0.0073064230321103,0.0039101079157582,29.293093292792,0.00014954474634234,0.00014954474634234,0.00014954474634234,3555315.3300026,0.015784129503593
33391759,0.9675344480256,0.016415171349997,0.0049095090515007,0.0069005788517364,0.0046050834467601,-0.0010784727440794,0.0010784732237454,7.8389944476299e-11,7.8399071021019e-11,2.583223938326e-10,1.7607960067583e-10,-0.00036019212005224,0.00036019274481663,-0.00059466468975538,0.000594666641864,-0.00059466468843383,0.00059466664056457,-0.00036019236717461,0.00036019314908377,-0.00036019204132177,0.00036019282326664,-0.00059466461144091,0.0005946667200372,-0.00059466461115115,0.00059466671976419,-0.0014046686037479,0.00140466862335,-0.0014046686084093,0.0014046686279913,-0.0014046686299682,0.0014046685965784,-0.0014046686343276,0.0014046686009216,-0.0012739874302885,0.0012739874953903,-0.0012739875797778,0.0012739876448961,-0.0012739874030692,0.0012739875218722,-0.0012739875536606,0.001273987672475,-0.00036019244528257,0.0003601930700412,-1.7464450767135e-11,5.8730240814913e-11,-2.2117993122993e-11,6.1673759761915e-11,-0.0017953440040671,0.0017953440440003,-0.001671513063235,0.0016715131584429,-0.0018171513136598,0.0018171512515406,-0.0018171517059795,0.0018171517934532,-0.0017762495751635,0.0017762495608047,-0.0017762496004375,0.0017762496431855,-0.0017762495629304,0.00177624959918,-0.0017762495882073,0.0017762496815545,-0.001671513770535,0.0016715137542399,-0.0016715130359678,0.0016715131820373,-0.0018171513591861,0.0018171513542308,-0.0018171517515289,0.0018171518961457,-0.0016715137976392,0.0016715137304582,-4.1198891541849e-11,-4.1189885765499e-11,-0.00094146550531094,0.00094146581395171,1.0423578951377e-10,1.8543029920223e-11,-0.00068629184110507,0.00068629201650373,-0.00075165595355651,0.00075165666773867,-0.00075165598787648,0.00075165670198424,-0.00068629192915714,0.00068629227327289,-0.00068629175531583,0.00068629209937545,-0.00075165587364535,0.0007516567478896,-0.00075165590780253,0.00075165678196721,-0.0012314563165003,0.0012314562664427,-0.0012314563444417,0.0012314562382146,-0.0012314562603703,0.001231456210321,-0.0012314562883403,0.0012314561821297,-0.0011367943578628,0.0011367941119691,-0.0011367945615173,0.0011367943156124,-0.0011367945322977,0.0011367943440709,-0.0011367943294937,0.0011367941412698,-0.0006862920124476,0.00068629218787464,0.81381076464073,123866,2964,0.0044874872685802,0.0074501650966144,0.0039175525329047,29.275810880081,0.00014940648704064,0.00014940648704064,0.00014940648704064,3243945.2453541,0.01598291899742
34391759,0.97820101968671,0.016599958267316,0.004966536823715,0.006977930604698,0.0046554908389034,-0.0010910623778636,0.0010910624660666,3.3200540158053e-12,3.3291375912494e-12,1.250633053651e-10,6.5525906257954e-11,-0.00035604863341376,0.00035604870847111,-0.0005955267448341,0.0005955278623782,-0.0005955268940209,0.00059552801159461,-0.00035604888793124,0.00035604908484469,-0.00035604857163191,0.00035604876856383,-0.00059552668765148,0.00059552791971703,-0.00059552683738639,0.00059552806946448,-0.0014251013804793,0.0014251012526034,-0.0014251014702046,0.001425101342315,-0.0014251013985467,0.0014251012337683,-0.0014251014883647,0.0014251013235695,-0.0012901650175806,0.0012901649818979,-0.0012901651888209,0.0012901651531422,-0.0012901649979081,0.0012901650018673,-0.0012901651691608,0.0012901651731223,-0.00035604894779939,0.00035604902284186,-1.1283346948555e-11,4.623942156447e-11,-1.5661976210172e-11,4.9141333020604e-11,-0.001823353610041,0.0018233536438841,-0.0016960771924708,0.0016960772702652,-0.0018471190411298,0.0018471189972737,-0.0018471196294057,0.0018471196995218,-0.0018024862591027,0.0018024862548195,-0.0018024863796545,0.0018024864159731,-0.0018024862569813,0.0018024862875918,-0.0018024863775381,0.001802486448744,-0.0016960776704904,0.0016960776594931,-0.0016960771128401,0.001696077228435,-0.0018471190905158,0.0018471190904805,-0.0018471196788166,0.0018471197927339,-0.0016960777499543,0.0016960777011357,-1.4656945951392e-10,-1.4656044188499e-10,-0.00094727316060812,0.00094727277069614,-6.7145268897831e-11,-1.2962802007797e-10,-0.00068405645100852,0.00068405613006545,-0.00075126372162623,0.00075126349151153,-0.00075126363642573,0.00075126340623774,-0.00068405662014458,0.00068405643267317,-0.00068405638371117,0.00068405619617419,-0.00075126366248885,0.00075126355040063,-0.00075126357760509,0.00075126346544327,-0.0012450442326139,0.0012450439096993,-0.0012450442519949,0.0012450438896867,-0.0012450442103919,0.0012450438874863,-0.0012450442301502,0.0012450438678573,-0.0011485078728387,0.0011485074535242,-0.0011485080859382,0.0011485076666054,-0.0011485080644618,0.0011485076883884,-0.0011485078511762,0.0011485074751124,-0.00068405668663739,0.00068405636572849,0.7296115327816,123866,2964,0.0045398989747366,0.0075659129644061,0.0039418096867459,31.392511497525,0.0001663400919802,0.0001663400919802,0.0001663400919802,3113834.9370608,0.016178503698664
35391759,0.98667554079752,0.016732351035143,0.0050078155160352,0.0070324511249244,0.0046920843941837,-0.0011072653266482,0.0011072649709457,-7.5461936160238e-11,-7.5452845702651e-11,-6.3086312006472e-11,-3.6410992022128e-11,-0.00036986659492798,0.0003698661119909,-0.00060964396969246,0.00060964415630799,-0.00060964431895644,0.00060964450560062,-0.00036986693648107,0.00036986641545721,-0.00036986661221382,0.00036986609120546,-0.0006096439956603,0.00060964413016869,-0.00060964434500431,0.00060964447952436,-0.0014436727311936,0.0014436724299014,-0.0014436729359826,0.0014436726346767,-0.0014436727205214,0.0014436724402739,-0.0014436729258352,0.0014436726455709,-0.0013067481878479,0.0013067480921937,-0.0013067483662783,0.0013067482706288,-0.0013067481967797,0.0013067480845106,-0.001306748374018,0.0013067482617521,-0.00036986691586811,0.00036986643291617,1.5048014058206e-11,-8.7658220226543e-12,1.7991896345211e-11,-1.2188298905835e-11,-0.0018435482526669,0.0018435482587802,-0.0017118668949716,0.0017118668804517,-0.0018651636281937,0.0018651636673105,-0.0018651645301264,0.0018651645245493,-0.0018256414042819,0.0018256414351033,-0.0018256416937661,0.0018256416976528,-0.0018256414430678,0.0018256414511622,-0.0018256417325561,0.001825641713711,-0.0017118670251014,0.0017118670512566,-0.0017118667572445,0.0017118667256502,-0.0018651637044716,0.001865163723476,-0.0018651646064301,0.0018651645807201,-0.0017118671626615,0.0017118672058701,-2.5953420616918e-10,-2.5952520200675e-10,-0.00096106401219625,0.00096106281803665,-3.0218653626169e-10,-2.6536723875713e-10,-0.00069943825559709,0.00069943747445057,-0.000766040874271,0.00076603963263962,-0.00076604062698913,0.000766039385285,-0.00069943858143029,0.00069943774948031,-0.00069943828162766,0.00069943744961061,-0.00076604091034566,0.00076603959571753,-0.00076604066400362,0.00076603934930156,-0.0012597126845407,0.0012597120302195,-0.0012597126698693,0.0012597120437964,-0.0012597127059747,0.0012597120516625,-0.0012597126921524,0.0012597120660943,-0.0011637269860604,0.0011637264326165,-0.0011637272312901,0.001163726677829,-0.001163727243189,0.0011637266677385,-0.0011637269964248,0.0011637264209833,-0.00069943855675992,0.0006994377756479,0.65593630488581,123866,2964,0.0046071237673601,0.0076493431743521,0.0039990669788662,35.83855880623,0.00020190847044984,0.00020190847044984,0.00020190847044984,3099609.4984951,0.016389802091907
36391759,0.99217217731251,0.016822284507095,0.0050357144953467,0.0070695822980083,0.0047169877137397,-0.0011159965729399,0.0011159967624205,3.2415032095961e-11,3.2424126465193e-11,1.2727039994723e-10,1.3471681256003e-10,-0.0003760680216632,0.00037606829769966,-0.0006165737279692,0.00061657509936924,-0.00061657385053373,0.00061657522196242,-0.00037606835326502,0.00037606861541364,-0.00037606802788873,0.00037606829005275,-0.00061657373656185,0.00061657509002281,-0.00061657385987741,0.00061657521334998,-0.0014538863793328,0.0014538862818727,-0.001453886453311,0.0014538863558373,-0.0014538863762131,0.0014538862852396,-0.0014538864500866,0.0014538863590962,-0.0013160052926089,0.0013160053311262,-0.001316005454034,0.0013160054925561,-0.0013160052950125,0.0013160053282235,-0.0013160054570223,0.0013160054902365,-0.0003760683457487,0.00037606862177006,1.0393224552948e-11,4.2724127527819e-13,1.6320704049724e-11,-6.1497444365141e-12,-0.0018550590177313,0.0018550590282117,-0.0017215132359614,0.0017215132271269,-0.0018763375504951,0.0018763375782048,-0.0018763381741203,0.0018763381826076,-0.0018380527175648,0.0018380527395918,-0.0018380528623325,0.0018380528689645,-0.0018380527441482,0.0018380527581339,-0.0018380528889202,0.0018380528875059,-0.001721513681758,0.0017215137109353,-0.0017215131908238,0.001721513175106,-0.0018763376287202,0.0018763376425915,-0.0018763382523711,0.0018763382469996,-0.0017215137267286,0.001721513762768,-1.0814615737824e-10,-1.0813715407241e-10,-0.00096842783873888,0.00096842761101304,-6.2917153578558e-11,-3.9340679404543e-11,-0.00070720567348864,0.00070720557662186,-0.00077347801198738,0.00077347807893528,-0.00077347794773598,0.00077347801461105,-0.00070720591406331,0.00070720577748875,-0.00070720569270773,0.00070720555606598,-0.00077347803784841,0.00077347805287604,-0.00077347797390097,0.00077347798885484,-0.0012677131454472,0.0012677128729743,-0.0012677131365363,0.0012677128813138,-0.0012677131154924,0.0012677128430284,-0.0012677131069035,0.0012677128516957,-0.001172080152974,0.0011720798338625,-0.0011720803705052,0.0011720800513764,-0.0011720803779299,0.0011720800441374,-0.0011720801604554,0.001172079826672,-0.00070720589370625,0.00070720579687384,0.68699515304475,123866,2964,0.0046433634581704,0.007696903848242,0.0040296444636887,37.525058721127,0.00021540046976902,0.00021540046976902,0.00021540046976902,3104009.5546617,0.016506067020668
37391759,0.99541745942325,0.016874844494246,0.0050520027178759,0.007091306834205,0.0047315349421647,-0.0011179471032334,0.0011179475953628,8.6791055181075e-11,8.680013875652e-11,2.4996516238293e-10,2.1159110751485e-10,-0.00036815309039281,0.00036815376183652,-0.00061217566447025,0.00061217768587741,-0.00061217565325104,0.00061217767468678,-0.00036815337612402,0.00036815411694276,-0.00036815305557791,0.00036815379641149,-0.00061217562907445,0.00061217772060621,-0.00061217561891608,0.00061217771045951,-0.0014592845737879,0.0014592845914248,-0.0014592845710275,0.0014592845886508,-0.0014592845860991,0.0014592845792067,-0.0014592845829249,0.0014592845760157,-0.0013200547890249,0.0013200548748555,-0.0013200549447043,0.0013200550305397,-0.0013200547761897,0.0013200548864405,-0.0013200549333333,0.0013200550435874,-0.00036815341062949,0.00036815408205775,-2.9558560535677e-12,2.9687188047372e-11,1.9605947485586e-12,2.3601213897094e-11,-0.0018645152926321,0.0018645153185274,-0.0017325050316972,0.0017325050663549,-0.0018889246363171,0.0018889246233813,-0.0018889250581157,0.0018889251088126,-0.0018442877498578,0.0018442877554404,-0.0018442877938072,0.0018442878165341,-0.0018442877566792,0.0018442877851226,-0.0018442878006323,0.0018442878462159,-0.0017325056958742,0.0017325057122399,-0.0017325050301926,0.00173250508683,-0.0018889247036706,0.0018889247067929,-0.0018889251254949,0.0018889251922293,-0.001732505697212,0.0017325056915771,-2.8437446931987e-11,-2.8428427207533e-11,-0.00096732991888537,0.00096733024081524,8.965554126858e-11,6.6111544462698e-11,-0.0006990521985186,0.00069905244699171,-0.00076701500939337,0.00076701579282107,-0.00076701505259349,0.00076701583594863,-0.00069905235620615,0.00069905264970416,-0.00069905217463054,0.00069905246806194,-0.00076701499057664,0.00076701581180679,-0.00076701503369912,0.00076701585485579,-0.0012711955752568,0.0012711955232963,-0.0012711955827263,0.0012711955155558,-0.0012711955162504,0.0012711954642989,-0.0012711955237359,0.0012711954565803,-0.0011739181997317,0.0011739179844671,-0.0011739183953992,0.0011739181801176,-0.0011739183869953,0.0011739181877376,-0.0011739181922697,0.0011739179930214,-0.00069905237759115,0.00069905262609882,0.68009907945379,123866,2964,0.0046515740550851,0.0077359891572043,0.0040251725182391,37.635448036795,0.00021628358429436,0.00021628358429436,0.00021628358429436,2983630.6800857,0.016549655495969
38391759,0.99729146974065,0.016906901175823,0.0050619704922003,0.0071044694339702,0.0047404612496527,-0.0011181948125883,0.0011181954012223,9.9938726558151e-11,9.9947811810015e-11,3.0492728342345e-10,2.1766546569002e-10,-0.00036547186439642,0.00036547263257889,-0.00061037511212006,0.00061037732478307,-0.00061037505264418,0.00061037726533591,-0.0003654720988835,0.00036547303104484,-0.00036547178249433,0.00036547271467152,-0.00061037502916826,0.00061037740745621,-0.00061037497081841,0.00061037734911798,-0.0014609369076393,0.0014609369656418,-0.0014609368777246,0.0014609369357135,-0.0014609369358716,0.0014609369370403,-0.0014609369054789,0.0014609369066306,-0.0013210762855799,0.0013210763633725,-0.0013210764438411,0.0013210765216383,-0.0013210762565602,0.0013210763911047,-0.0013210764164702,0.001321076551018,-0.00036547218068272,0.00036547294884981,-1.8404022946203e-11,6.1857621266396e-11,-1.7575441424241e-11,5.929066319899e-11,-0.0018677694366234,0.0018677694787029,-0.0017353300254934,0.0017353301142392,-0.0018923951704178,0.0018923951088866,-0.0018923954842544,0.0018923955797583,-0.0018472492341648,0.0018472492210178,-0.0018472492282931,0.0018472492697136,-0.0018472492228339,0.0018472492646611,-0.0018472492169663,0.0018472493133563,-0.0017353307997236,0.0017353307941991,-0.0017353300306411,0.0017353301732005,-0.001892395221855,0.0018923952132238,-0.0018923955357173,0.0018923956841007,-0.0017353307944089,0.0017353307350495,-7.5899059718178e-12,-7.5808884972954e-12,-0.00096628226711789,0.00096628277242266,1.5763980426366e-10,7.7969908491934e-11,-0.00069643677097179,0.00069643708970245,-0.00076477900056381,0.00076477999169818,-0.00076477908359279,0.00076478007465426,-0.0006964368598224,0.00069643733185769,-0.00069643669263557,0.00069643716460369,-0.00076477892717208,0.0007647800654124,-0.00076477900995224,0.00076478014811878,-0.0012716312585866,0.0012716312856425,-0.0012716312849241,0.0012716312591504,-0.0012716311898192,0.0012716312168841,-0.0012716312160538,0.0012716311902949,-0.001174099853487,0.0011740996450359,-0.0011741000379079,0.0011740998294393,-0.0011741000106509,0.0011740998555152,-0.0011740998274821,0.0011740996723556,-0.00069643693516323,0.00069643725392836,0.71704436579938,123866,2964,0.0046526378845705,0.0077494186886238,0.0040208545607689,37.196046835569,0.00021276837468455,0.00021276837468455,0.00021276837468455,2949617.076392,0.016560015111503
38880000,0.99797558088897,0.016919043179437,0.0050657457720266,0.0071094490481793,0.0047438483592314,-0.0011178602393827,0.0011178607375355,7.9284438473651e-11,7.9294238821316e-11,2.8621799958217e-10,1.9445081899184e-10,-0.00036172344863971,0.00036172409610856,-0.00060805782644637,0.00060805987736986,-0.00060805779007286,0.0006080598410079,-0.00036172366145611,0.00036172448378075,-0.00036172336131636,0.00036172418325768,-0.00060805773914246,0.00060805996490949,-0.00060805770338615,0.00060805992923251,-0.0014618695317075,0.0014618695432886,-0.0014618695167765,0.0014618695284318,-0.0014618695612123,0.001461869513313,-0.0014618695458858,0.0014618694979391,-0.0013215909794922,0.0013215910098561,-0.0013215911535918,0.0013215911839426,-0.0013215909490201,0.0013215910393008,-0.0013215911245681,0.0013215912148813,-0.00036172374847351,0.00036172439604108,-2.0362939396767e-11,6.5336032014365e-11,-2.0226190236125e-11,6.3467415681112e-11,-0.0018710743458249,0.0018710743893622,-0.0017388743746217,0.0017388744697248,-0.0018963191944036,0.0018963191268275,-0.0018963195116529,0.001896319611876,-0.0018497756021262,0.0018497755869926,-0.0018497756116796,0.0018497756550066,-0.0018497755925135,0.0018497756353684,-0.0018497756020151,0.0018497757033604,-0.0017388751330634,0.0017388751241337,-0.0017388743770739,0.0017388745296356,-0.0018963192513537,0.0018963192409937,-0.001896319568706,0.0018963197262833,-0.0017388751304125,0.0017388750641883,-3.4705330209808e-11,-3.4695803772893e-11,-0.00096450359350836,0.0009645039446914,1.3281480594443e-10,4.7414040577724e-11,-0.00069200906753526,0.00069200925839752,-0.0007612444891746,0.00076124527924899,-0.00076124455554237,0.00076124534548776,-0.00069200916460029,0.00069200952237245,-0.0006920089829551,0.00069200934032577,-0.00076124440979038,0.00076124535883352,-0.00076124447594308,0.00076124542504795,-0.0012717344846004,0.0012717344349774,-0.0012717345127251,0.0012717344066762,-0.0012717344228975,0.0012717343732326,-0.0012717344509317,0.0012717343449076,-0.0011735364317154,0.0011735361540365,-0.0011735366087034,0.0011735363309966,-0.001173536579372,0.0011735363593544,-0.0011735364034915,0.0011735361834437,-0.00069200924654461,0.00069200943756165,0.74364572121898,123866,2964,0.0046512950447638,0.0077630627616131,0.0040135074750237,37.193651335324,0.00021274921068259,0.00021274921068259,0.00021274921068259,2877163.4683146,0.016565076510037
