time,ASR_ext,ASR_strain,ASR_strain_xx,ASR_strain_yy,ASR_strain_zz,disp_x_101,disp_x_102,disp_x_103,disp_x_104,disp_x_105,disp_x_106,disp_x_p10_neg,disp_x_p10_pos,disp_x_p11_neg,disp_x_p11_pos,disp_x_p12_neg,disp_x_p12_pos,disp_x_p13_neg,disp_x_p13_pos,disp_x_p14_neg,disp_x_p14_pos,disp_x_p15_neg,disp_x_p15_pos,disp_x_p16_neg,disp_x_p16_pos,disp_x_p1_neg,disp_x_p1_pos,disp_x_p2_neg,disp_x_p2_pos,disp_x_p3_neg,disp_x_p3_pos,disp_x_p4_neg,disp_x_p4_pos,disp_x_p5_neg,disp_x_p5_pos,disp_x_p6_neg,disp_x_p6_pos,disp_x_p7_neg,disp_x_p7_pos,disp_x_p8_neg,disp_x_p8_pos,disp_x_p9_neg,disp_x_p9_pos,disp_y_101,disp_y_102,disp_y_103,disp_y_104,disp_y_105,disp_y_106,disp_y_p10_neg,disp_y_p10_pos,disp_y_p11_neg,disp_y_p11_pos,disp_y_p12_neg,disp_y_p12_pos,disp_y_p1_neg,disp_y_p1_pos,disp_y_p2_neg,disp_y_p2_pos,disp_y_p3_neg,disp_y_p3_pos,disp_y_p4_neg,disp_y_p4_pos,disp_y_p5_neg,disp_y_p5_pos,disp_y_p6_neg,disp_y_p6_pos,disp_y_p7_neg,disp_y_p7_pos,disp_y_p8_neg,disp_y_p8_pos,disp_y_p9_neg,disp_y_p9_pos,disp_z_101,disp_z_102,disp_z_103,disp_z_104,disp_z_105,disp_z_106,disp_z_p10_neg,disp_z_p10_pos,disp_z_p11_neg,disp_z_p11_pos,disp_z_p12_neg,disp_z_p12_pos,disp_z_p13_neg,disp_z_p13_pos,disp_z_p14_neg,disp_z_p14_pos,disp_z_p15_neg,disp_z_p15_pos,disp_z_p16_neg,disp_z_p16_pos,disp_z_p1_neg,disp_z_p1_pos,disp_z_p2_neg,disp_z_p2_pos,disp_z_p3_neg,disp_z_p3_pos,disp_z_p4_neg,disp_z_p4_pos,disp_z_p5_neg,disp_z_p5_pos,disp_z_p6_neg,disp_z_p6_pos,disp_z_p7_neg,disp_z_p7_pos,disp_z_p8_neg,disp_z_p8_pos,disp_z_p9_neg,disp_z_p9_pos,humidity,ndof,nelem,strain_xx,strain_yy,strain_zz,temp,thermal_strain_xx,thermal_strain_yy,thermal_strain_zz,vonmises,vstrain
14391759,0,0,0,0,0,0,0,0,0,0,0,0,0,0,0,0,0,0,0,0,0,0,0,0,0,0,0,0,0,0,0,0,0,0,0,0,0,0,0,0,0,0,0,0,0,0,0,0,0,0,0,0,0,0,0,0,0,0,0,0,0,0,0,0,0,0,0,0,0,0,0,0,0,0,0,0,0,0,0,0,0,0,0,0,0,0,0,0,0,0,0,0,0,0,0,0,0,0,0,0,0,0,0,0,0,0,0,0,0,0,0,0,0,0,0,0,0,0,0,0,0,0,0
14891759,0.063454048252868,0.0010182997967411,0.00033943326558038,0.00033943326558038,0.00033943326558038,-0.00011492014188363,0.00011491670920333,-7.0349876798892e-10,-7.0349877866874e-10,-1.3565765196086e-09,-7.6507692454277e-10,-0.00010074959866726,0.00010074498995123,-0.00010546781521672,0.0001054611210118,-0.0001054694400978,0.000105462745893,-0.00010074838561932,0.00010074268031231,-0.00010075013588278,0.00010074443057584,-0.00010546838206934,0.0001054605516066,-0.00010546999925446,0.00010546216879196,-0.00012228723342749,0.00012228600783964,-0.0001222879338966,0.0001222867083088,-0.00012228703669109,0.00012228620796691,-0.00012228774081124,0.000122286912087,-0.00011467395541153,0.00011467331145738,-0.00011467452232902,0.00011467387837464,-0.00011467415084403,0.00011467312167796,-0.00011467470964992,0.00011467368048396,-0.00010074783263928,0.00010074322392325,1.8220090345364e-10,-3.7936934343391e-10,1.8115912307573e-10,-3.7046509114445e-10,-0.00012221884477043,0.00012221865474738,-0.0001178290191511,0.00011782848616269,-0.00012120384555376,0.00012120438634536,-0.00012120620571843,0.00012120564938328,-0.00012428998111781,0.00012429018721665,-0.00012429060359656,0.00012429041963589,-0.00012429006987762,0.00012428987770044,-0.00012429069235616,0.00012429011011972,-0.00011782649852009,0.00011782665443858,-0.00011782852210103,0.00011782760582036,-0.00012120375751798,0.00012120392401928,-0.00012120611768315,0.00012120518705696,-0.00011782699556957,0.00011782753478067,-8.8827613896648e-10,-8.8827610173071e-10,-0.00011515842023249,0.00011515347712536,-1.4205550033378e-09,-8.4840573970063e-10,-0.00010655051435816,0.00010654706120753,-0.00011019289271157,0.00011018711485468,-0.00011019149796913,0.00011018572011206,-0.00010655257113441,0.0001065480537745,-0.00010655105981101,0.00010654654245111,-0.0001101934369971,0.00011018656123828,-0.0001101920530755,0.00011018517731623,-0.00012155202519411,0.00012155018141162,-0.0001215518282411,0.00012155037279065,-0.00012155244360649,0.00012155059982387,-0.00012155225185812,0.00012155079640766,-0.00011363643285939,0.00011363528422996,-0.00011363629189864,0.00011363514326918,-0.00011363648621296,0.00011363496208493,-0.00011363661521502,0.00011363509108697,-0.00010655205013072,0.00010654859698102,0.64373504832551,123866,2964,0.00047871183802716,0.00050911350747956,0.00047970043506568,30.458213264242,0.00015886570611393,0.00015886570611393,0.00015886570611393,1381892.7984904,0.0014686093080608
15391759,0.1144895178874,0.0018473934338198,0.0006111596876511,0.00062543160235159,0.0006108021438171,-0.00016942598043981,0.00016942499578242,-3.4743359764943e-10,-3.4743840233354e-10,-4.3943223784898e-10,-3.2255754616191e-11,-0.00014323933038227,0.00014323885509642,-0.00015132053444544,0.00015132001273643,-0.00015132125389871,0.0001513207321772,-0.00014323889731234,0.0001432376348099,-0.00014323971773532,0.00014323845525564,-0.00015132093213098,0.00015131960775922,-0.00015132164927313,0.00015132032488995,-0.00018427738757543,0.00018427653489282,-0.00018427784635909,0.0001842769936845,-0.00018427725492304,0.00018427667293228,-0.00018427771487155,0.00018427713288907,-0.00017133913924252,0.00017133856161942,-0.00017133978049453,0.00017133920286849,-0.00017133927249753,0.00017133842825992,-0.00017133991166767,0.00017133906742788,-0.00014323850397682,0.00014323802866814,6.6911987333247e-11,-3.2551842479756e-10,9.5654718151337e-11,-3.4772218154088e-10,-0.00018624735680947,0.00018624710418401,-0.00017776596303609,0.00017776540806598,-0.00018464935535612,0.00018464963053336,-0.0001846493753076,0.00018464887916837,-0.00019037671842981,0.0001903767469322,-0.00019037780753999,0.00019037753917291,-0.00019037742391523,0.00019037719160599,-0.0001903785130778,0.00019037798390039,-0.00017776452149724,0.00017776457410724,-0.00017776615574263,0.00017776533877134,-0.00018464964665929,0.0001846496270843,-0.00018464966666619,0.00018464887577539,-0.0001777643288948,0.00017776464350622,-4.8016128044476e-10,-4.8016606496955e-10,-0.00016961131446963,0.00016960949622897,-6.542971160987e-10,-2.0287607771994e-10,-0.00015557507237771,0.00015557432806777,-0.00016153009267562,0.00016152857341554,-0.00016152962459994,0.00016152810535043,-0.0001555762063217,0.00015557458806776,-0.0001555755160773,0.0001555738979329,-0.00016153053419838,0.00016152812756763,-0.00016153007106058,0.00016152766444016,-0.00018217283461223,0.00018217155786559,-0.00018217268201594,0.0001821717084295,-0.00018217304417703,0.0001821717674247,-0.00018217289369291,0.00018217192010047,-0.00016910938308724,0.00016910850980413,-0.00016910914299569,0.0001691082697068,-0.00016910929484368,0.00016910812381734,-0.0001691095299763,0.0001691083589563,-0.00015557577396484,0.00015557502954611,0.66498198186136,123866,2964,0.00070569208577107,0.00077572466037327,0.00070645946917043,27.265042665997,0.00013332034132798,0.00013332034132798,0.00013332034132798,1973919.1555232,0.0021902860794694
15891759,0.16060981840067,0.0026799938159743,0.00087837569185704,0.00092398444301182,0.00087763368110539,-0.00022601296017486,0.00022601251757578,-1.8603368152667e-10,-1.8603667530286e-10,-1.5022814061872e-10,1.2058742663689e-10,-0.00018446072955669,0.00018446110711053,-0.00019814410022929,0.00019814461046091,-0.0001981444586953,0.00019814496893194,-0.0001844608300347,0.00018446067308552,-0.00018446099406644,0.00018446083713768,-0.00019814436657903,0.00019814433782062,-0.00019814472526897,0.0001981446965161,-0.00024785724937931,0.00024785659173943,-0.00024785751429958,0.00024785685667049,-0.00024785716177237,0.00024785668386444,-0.00024785742669375,0.0002478569487971,-0.00023404754732453,0.0002340471158127,-0.00023404789466667,0.00023404746316063,-0.00023404763583033,0.00023404702572607,-0.00023404798310586,0.00023404737300865,-0.00018446056452076,0.00018446094205542,1.1903895182409e-11,-2.5085028844772e-10,5.327074208047e-11,-2.8817873682155e-10,-0.00025749255563614,0.00025749232067528,-0.00024658153561375,0.0002465810531581,-0.00025738099874234,0.00025738113092218,-0.00025738053606289,0.00025738015216052,-0.00026034065553644,0.0002603406214916,-0.00026034145234988,0.00026034119176295,-0.00026034116081699,0.0002603409554488,-0.00026034195768967,0.00026034152577907,-0.0002465811701073,0.0002465811840941,-0.00024658178025112,0.00024658112413431,-0.00025738130664227,0.00025738121297012,-0.00025738084398009,0.00025738023422598,-0.00024658092555656,0.00024658111320788,-2.5609450831163e-10,-2.5609747685376e-10,-0.00022583889006979,0.00022583792866773,-3.1402166460002e-10,3.0809362673795e-11,-0.00020949995857068,0.0002095000498437,-0.00021551259872608,0.00021551241475865,-0.00021551245563309,0.00021551227166402,-0.0002095005021885,0.00020949991614495,-0.00020950029963191,0.00020949971362809,-0.00021551293893866,0.00021551207306271,-0.00021551279675282,0.00021551193087295,-0.00024379778233348,0.00024379675809313,-0.00024379766681401,0.00024379687358778,-0.00024379786684368,0.00024379684259886,-0.000243797751851,0.00024379695862062,-0.00022958479753965,0.00022958419546494,-0.00022958469105723,0.00022958408897731,-0.00022958480632905,0.0002295839757213,-0.00022958491141327,0.00022958408081086,-0.00020950016468525,0.00020950025591715,0.7444907159995,123866,2964,0.00094128672212653,0.0010723018639488,0.00094055271503481,25.412758541146,0.00011850206832917,0.00011850206832917,0.00011850206832917,2175954.2383884,0.0029585267492184
16391759,0.20549446751534,0.0034954407025828,0.001131313791222,0.0012329246641636,0.0011312022471972,-0.00028053147329968,0.00028053121985819,-1.4403282435197e-10,-1.4403571199905e-10,-6.6428322410349e-11,1.5432724852982e-10,-0.00021538295886916,0.00021538367634006,-0.00023777557158213,0.00023777654973591,-0.00023777578210825,0.0002377767602833,-0.0002153832879314,0.00021538356653093,-0.00021538317662602,0.00021538345526053,-0.0002377757896679,0.00023777632650222,-0.00023777600084632,0.00023777653770196,-0.00031196820040198,0.00031196757637387,-0.00031196837490872,0.00031196775088954,-0.00031196812888034,0.0003119676516269,-0.00031196830322912,0.00031196782598609,-0.00029637068496521,0.00029637028171703,-0.00029637082182825,0.00029637041858686,-0.00029637075719183,0.00029637020802874,-0.0002963708940737,0.00029637034491674,-0.00021538307015827,0.00021538378759619,-3.0344117713915e-12,-2.1757286352401e-10,4.0204495422726e-11,-2.5791170726482e-10,-0.00033305496770769,0.00033305475025838,-0.00031930450421453,0.00031930406490706,-0.00033574102157158,0.00033574110988608,-0.0003357405075399,0.00033574017479304,-0.00033346108868311,0.00033346104331978,-0.00033346167720526,0.00033346143276495,-0.00033346140817614,0.00033346122151471,-0.00033346199675396,0.0003334616110151,-0.00031930445334332,0.00031930445831805,-0.00031930471191267,0.00031930413130272,-0.00033574128112638,0.00033574117256258,-0.00033574076710477,0.000335740237479,-0.00031930424572022,0.00031930439200011,-1.6736388080917e-10,-1.6736675319293e-10,-0.000279727849191,0.00027972724405961,-2.0314524198245e-10,9.7112339288372e-11,-0.00025835904341837,0.00025835941791618,-0.00026538853622401,0.00026538876167783,-0.00026538849947449,0.00026538872490962,-0.00025835928798729,0.00025835907004488,-0.00025835934114762,0.00025835912323901,-0.00026538883352252,0.00026538846322481,-0.00026538879673836,0.00026538842642169,-0.0003053055585345,0.0003053046553854,-0.00030530545801313,0.00030530475616948,-0.00030530559577369,0.00030530469261995,-0.00030530549559458,0.00030530479374713,-0.00028876784261854,0.00028876740435274,-0.0002887678058162,0.00028876736754545,-0.00028876790622298,0.00028876726871634,-0.00028876794206814,0.00028876730456535,-0.00025835899246268,0.00025835936692593,0.7519798507018,123866,2964,0.0011682276765388,0.0013867508869985,0.0011648607962187,24.448299193925,0.0001107863935514,0.0001107863935514,0.0001107863935514,2518468.5018429,0.0037267911482209
16891759,0.24994978775023,0.0043514996534554,0.0013912104702052,0.0015713090240798,0.0013889801591704,-0.00033778673601217,0.00033778660498085,-1.1331418647644e-10,-1.1331689467312e-10,-2.7563911592157e-11,1.6060940855899e-10,-0.00024691862085733,0.00024691948629831,-0.00027834402089351,0.00027834516270718,-0.00027834413379297,0.00027834527563888,-0.00024691904494,0.00024691953261566,-0.00024691880880508,0.00024691929651419,-0.00027834420797178,0.00027834497163275,-0.00027834432177705,0.00027834508546712,-0.00037961415174623,0.00037961356838306,-0.00037961427799188,0.00037961369463785,-0.00037961409048106,0.00037961363259227,-0.00037961421652833,0.00037961375864906,-0.00036292210193452,0.00036292173645421,-0.00036292216224946,0.00036292179677633,-0.00036292216370669,0.00036292167332678,-0.00036292222414275,0.00036292173376918,-0.00024691885751468,0.00024691972291944,-1.0025972242842e-11,-1.938300823313e-10,3.462493892306e-11,-2.3640619197586e-10,-0.00041565852558483,0.00041565832431189,-0.0003995569108686,0.00039955650343683,-0.00042108337047625,0.00042108343625671,-0.0004210829641865,0.00042108266925391,-0.00041292481547574,0.0004129247669263,-0.00041292529058815,0.00041292506103231,-0.0004129250534933,0.00041292488409188,-0.00041292552865851,0.00041292517824998,-0.0003995570160411,0.00039955702078811,-0.00039955709787413,0.00039955656985976,-0.00042108360425137,0.00042108349121341,-0.00042108319796759,0.00042108272421508,-0.00039955682910235,0.00039955695443147,-1.3567325662808e-10,-1.3567590016497e-10,-0.00033548356234797,0.0003354831517543,-1.5050734061141e-10,1.2175997153704e-10,-0.0003087486589945,0.00030874912245362,-0.000316426984406,0.00031642742597563,-0.00031642702590851,0.00031642746745345,-0.00030874875355723,0.00030874867747869,-0.0003087489295055,0.00030874885344621,-0.00031642725484506,0.00031642715466775,-0.00031642729563966,0.00031642719543591,-0.00036954536084027,0.00036954454035466,-0.00036954526973904,0.00036954463189677,-0.00036954536650095,0.00036954454600973,-0.00036954527556,0.00036954463771252,-0.00035177021162032,0.00035176982800637,-0.00035177023242761,0.00035176984880669,-0.00035177032358249,0.00035176975892279,-0.00035177030219484,0.00035176973754127,-0.00030874848394051,0.00030874894738182,0.80138220899585,123866,2964,0.0014065172743136,0.0017303827692513,0.0013968909482632,23.815301105148,0.00010572240884118,0.00010572240884118,0.00010572240884118,2894509.1496568,0.0045441167470709
17391759,0.28993945444359,0.0050311065666896,0.0015953102253771,0.0018479300807573,0.0015878662605552,-0.00037971544102241,0.00037971562045696,-5.0538734032249e-11,-5.0541407832919e-11,8.7009716515828e-11,2.2276111477879e-10,-0.00026251820959334,0.00026251945034381,-0.00030250147492153,0.00030250319781891,-0.00030250142890392,0.00030250315183678,-0.00026251875911827,0.00026251971824916,-0.00026251835078617,0.00026251930995426,-0.0003025016119737,0.00030250305743522,-0.00030250156765571,0.00030250301314986,-0.00043323312311371,0.00043323265749021,-0.00043323316938546,0.00043323270376961,-0.00043323307909624,0.00043323270391728,-0.00043323312482278,0.00043323274965106,-0.0004115260898378,0.00041152579345945,-0.00041152606957023,0.00041152577319552,-0.0004115261344454,0.00041152574698493,-0.00041152611511473,0.00041152572765965,-0.00026251862012268,0.00026251986083444,-2.3053552259215e-11,-1.5779930655641e-10,1.9341882030545e-11,-1.9903268351994e-10,-0.00048171837164325,0.00048171819265055,-0.00046142395857082,0.00046142360750222,-0.00048822523923534,0.00048822526211143,-0.00048822469263032,0.00048822445057658,-0.00047796479534609,0.00047796473312967,-0.00047796515171989,0.00047796494570134,-0.00047796497426936,0.00047796482552936,-0.00047796533069313,0.00047796503815123,-0.00046142427214956,0.00046142426452472,-0.00046142416632122,0.00046142372809095,-0.00048822545861839,0.00048822533839953,-0.00048822491201862,0.00048822452686639,-0.00046142406446124,0.00046142414399961,-5.2109222309506e-11,-5.2111836886801e-11,-0.00037521935687024,0.00037521941033688,-2.2768473887281e-11,1.943146787023e-10,-0.00033945630851408,0.00033945707006445,-0.00034946062657403,0.00034946159854733,-0.00034946079411491,0.00034946176606023,-0.00033945622952612,0.00033945655299919,-0.00033945652693749,0.00033945685042607,-0.00034946084478147,0.00034946138047957,-0.00034946101050599,0.00034946154617319,-0.00041930715943929,0.00041930653309775,-0.00041930708727851,0.00041930660610409,-0.00041930712238686,0.00041930649603902,-0.00041930704993806,0.00041930656875854,-0.0003967646334232,0.00039676436848682,-0.00039676468640225,0.00039676442145721,-0.00039676475905667,0.00039676434899493,-0.00039676470656671,0.00039676429651089,-0.0003394560094702,0.00033945677100917,0.7107781577386,123866,2964,0.0015810012787067,0.0020051002799701,0.0015622295363954,22.123328802777,9.2186630422212e-05,9.2186630422212e-05,9.2186630422212e-05,3215731.9726642,0.0051616570094925
17891759,0.32347095668304,0.0055030594723449,0.0017377056231228,0.0020412251568732,0.001724128692349,-0.00040732591884509,0.00040732634597788,4.8730035889677e-12,4.8702713342009e-12,1.8062551146314e-10,2.508124143235e-10,-0.00027461259693729,0.00027461406065794,-0.00031930532208664,0.00031930742966465,-0.00031930515133207,0.00031930725894771,-0.00027461318985872,0.00027461449615208,-0.00027461267716857,0.00027461398349978,-0.00031930539582199,0.00031930735353728,-0.00031930522731732,0.00031930718506876,-0.00046943100876705,0.00046943066948788,-0.00046943098222496,0.0004694306429529,-0.00046943098610642,0.00046943069373516,-0.00046943095877404,0.00046943066641113,-0.00044105839131358,0.00044105816250505,-0.00044105831492826,0.00044105808612465,-0.00044105841447008,0.00044105813728387,-0.00044105833957514,0.00044105806239361,-0.00027461311312723,0.00027461457680736,-3.7768770101764e-11,-1.1009786268881e-10,-4.6676889861879e-13,-1.4731626545089e-10,-0.00052361887011193,0.0005236187231833,-0.00049735435821519,0.00049735408768927,-0.00052664087168919,0.0005266408422433,-0.00052664023068024,0.00052664005865388,-0.00052360889242582,0.00052360881637851,-0.00052360910970032,0.00052360893864755,-0.00052360899917251,0.0005236088790314,-0.00052360921649574,0.00052360900134926,-0.00049735481097897,0.0004973547863698,-0.0004973545674167,0.00049735425175701,-0.0005266410559509,0.00052664093131536,-0.00052664041494585,0.00052664014772677,-0.00049735460183804,0.00049735462236444,9.7835509354111e-12,9.7808694217413e-12,-0.00040103068485277,0.00040103109314644,7.8109145708921e-11,2.2162477611816e-10,-0.00035891669602871,0.00035891760117941,-0.00037097567828967,0.00037097696499258,-0.00037097594942539,0.00037097723609774,-0.00035891645619343,0.00035891706331301,-0.00035891684312191,0.0003589174502547,-0.00037097582550632,0.00037097681872967,-0.00037097609387034,0.00037097708706158,-0.00045222145853397,0.00045222102797142,-0.00045222141128249,0.00045222107641589,-0.00045222138342885,0.00045222095286098,-0.00045222133550196,0.00045222100063022,-0.00042463722880107,0.00042463705012872,-0.00042463731029078,0.0004246371316123,-0.00042463735825398,0.00042463708279101,-0.00042463727820999,0.00042463700275318,-0.00035891630515837,0.00035891721029751,0.59260256382937,123866,2964,0.001695882567373,0.0021793002326552,0.0016696168328006,19.639702665621,7.2317621324967e-05,7.2317621324967e-05,7.2317621324967e-05,3626148.8449417,0.0055602678380442
18391759,0.35230177893794,0.0059065529654117,0.0018585717652199,0.0022076741751207,0.0018403070250711,-0.00043135374635909,0.00043135419511145,1.1890632131703e-11,1.1887804365149e-11,1.9364364151085e-10,2.2611532977306e-10,-0.00028689238629694,0.00028689380039294,-0.00033586422142035,0.00033586629595066,-0.00033586402893893,0.00033586610350959,-0.00028689296084427,0.00028689429187709,-0.00028689242970663,0.00028689376077627,-0.00033586425847213,0.00033586625767775,-0.00033586406815781,0.00033586606740124,-0.00049984912725178,0.0004998488251604,-0.00049984907444798,0.00049984877236436,-0.00049984911654248,0.00049984883669853,-0.00049984906297875,0.00049984878314254,-0.00046705269127848,0.00046705247469146,-0.00046705259909,0.00046705238250821,-0.00046705270221987,0.00046705246205331,-0.00046705261141046,0.00046705237124892,-0.00028689292092623,0.00028689433498164,-4.1917045639499e-11,-7.7466431808463e-11,-1.3087576106328e-11,-1.0691941414485e-10,-0.00055891144234457,0.00055891132331046,-0.00052814395328686,0.00052814375020467,-0.0005588021705134,0.00055880211576914,-0.00055880154424114,0.00055880141935055,-0.00056226270029012,0.00056226262287789,-0.00056226281487644,0.00056226267712035,-0.00056226273449242,0.00056226263639479,-0.000562262849126,0.00056226269068542,-0.00052814442998176,0.00052814439330179,-0.00052814412862055,0.00052814390473224,-0.00055880231609934,0.00055880220124091,-0.00055880168982893,0.0005588015048216,-0.00052814425470778,0.00052814423883574,8.4296752494281e-12,8.4269014315928e-12,-0.00042375718221136,0.00042375760898222,9.0731189393562e-11,1.809439523894e-10,-0.00037839751269347,0.00037839832977595,-0.00039129515490911,0.000391296360478,-0.00039129544089689,0.00039129664643521,-0.00037839720438983,0.00037839782819253,-0.00037839760702053,0.00037839823083352,-0.00039129524985601,0.00039129626662296,-0.00039129553287799,0.00039129654961194,-0.00047995831809943,0.00047995794931744,-0.00047995828854234,0.00047995798004531,-0.00047995823220022,0.00047995786341245,-0.00047995820192875,0.00047995789342502,-0.00044950891916761,0.00044950872889063,-0.00044950901956489,0.00044950882928221,-0.00044950904978054,0.00044950879804717,-0.00044950895094495,0.00044950869921687,-0.00037839710555433,0.00037839792262742,0.59387052420227,123866,2964,0.0017958445289037,0.0023260010538925,0.001764159025708,17.516039598909,5.5328316791271e-05,5.5328316791271e-05,5.5328316791271e-05,3950520.4463643,0.0059034401300846
18891759,0.38017734937689,0.0063327006395833,0.0019843408474349,0.0023862428839265,0.0019621169082219,-0.00045831455445305,0.00045831480204002,-3.5718318432831e-11,-3.5721153596219e-11,1.2184193214349e-10,1.7034903385101e-10,-0.0002950114969823,0.00029501263904058,-0.00035124246997662,0.00035124417958412,-0.00035124236199783,0.00035124407164718,-0.00029501200730825,0.00029501303925931,-0.00029501155328701,0.00029501258528413,-0.0003512425222947,0.00035124412691705,-0.00035124241578547,0.00035124402044783,-0.00053484521677727,0.0005348448298304,-0.00053484519129313,0.0005348448043544,-0.00053484520030128,0.00053484484686841,-0.00053484517435427,0.00053484482092817,-0.00049924164115727,0.00049924137082846,-0.00049924156911941,0.00049924129879729,-0.0004992416576582,0.00049924135338356,-0.00049924158629044,0.00049924128202035,-0.0002950119531283,0.00029501309514596,-3.2595478230515e-11,-8.2564880572735e-11,-1.3344207738834e-11,-1.0239616161387e-10,-0.00060284569363934,0.0006028455789444,-0.0005692150595675,0.00056921487085647,-0.00060315784539862,0.0006031578076245,-0.00060315731878563,0.00060315718313638,-0.00060601671646855,0.00060601664886961,-0.00060601679895301,0.00060601667215517,-0.00060601670182591,0.0006060166014137,-0.0006060167843582,0.0006060166247486,-0.00056921546941735,0.00056921542692538,-0.00056921518186332,0.00056921496199592,-0.00060315796309027,0.00060315786778456,-0.00060315743648013,0.00060315724329642,-0.00056921534717798,0.00056921533584411,-5.3197838309468e-11,-5.3200640051083e-11,-0.00044907073499878,0.00044907087211795,1.9734399598227e-11,1.0658007191961e-10,-0.0003988658826992,0.0003988664672377,-0.00041274016887541,0.00041274101141159,-0.00041274038010849,0.00041274122261299,-0.00039886564592229,0.00039886604758244,-0.00039886597260905,0.00039886637427627,-0.00041274025950811,0.00041274092127197,-0.00041274046848994,0.00041274113021479,-0.0005118801977559,0.00051187971786858,-0.00051188016879131,0.00051187974757296,-0.00051188013244159,0.00051187965254722,-0.00051188010312034,0.000511879681895,-0.00047929215587055,0.00047929186166749,-0.00047929226168183,0.00047929196747439,-0.00047929229111038,0.00047929193794664,-0.00047929218601287,0.00047929183285641,-0.00039886555304496,0.00039886613757376,0.65137566946256,123866,2964,0.0019080140645491,0.0025085942943236,0.0018694582465065,16.908473019802,5.0467784158418e-05,5.0467784158418e-05,5.0467784158418e-05,4028137.5602357,0.0063059598864411
19391759,0.40957303364557,0.0068268009093446,0.0021282829572244,0.0025977560039107,0.0021007619482095,-0.00049090966851297,0.0004909097169666,-8.111537483392e-11,-8.1118260260478e-11,3.6103140140027e-11,1.2275514461312e-10,-0.0003038454750328,0.00030384631792425,-0.00036887832554756,0.00036887965728061,-0.00036887831845057,0.00036887965022773,-0.00030384592734773,0.00030384658945372,-0.00030384556598064,0.00030384622812762,-0.00036887841454732,0.00036887956819267,-0.00036887840830916,0.00036887956199817,-0.00057710414834458,0.00057710368372335,-0.00057710416205019,0.00057710369743669,-0.00057710411903803,0.00057710371364346,-0.00057710413253804,0.00057710372715024,-0.00053931900507468,0.00053931870041537,-0.0005393189561678,0.00053931865151394,-0.00053931903432528,0.00053931867072769,-0.00053931898552486,0.00053931862193087,-0.0003038458373502,0.00030384668019942,-1.7856713872002e-11,-1.0424619076863e-10,-5.6134559116722e-12,-1.1669821184082e-10,-0.00065789900929491,0.00065789888804826,-0.00062186484399042,0.00062186463990868,-0.00065989030484178,0.00065989030347555,-0.00065988991394169,0.00065988974362232,-0.00065917266727138,0.00065917261419186,-0.00065917276518572,0.00065917263683725,-0.00065917264434048,0.00065917253250782,-0.00065917274230031,0.00065917255520116,-0.00062186508322716,0.00062186504306195,-0.00062186492779289,0.00062186466762031,-0.00065989040664868,0.00065989033256234,-0.00065989001574572,0.0006598897727062,-0.00062186499947808,0.00062186501540407,-1.1207752292295e-10,-1.1208030531773e-10,-0.00047923813782309,0.00047923796963592,-6.9559770151181e-11,4.0616084919721e-11,-0.00042267568660969,0.00042267602788091,-0.00043775346203024,0.00043775391002925,-0.00043775358607415,0.00043775403403499,-0.00042267557530375,0.00042267569157362,-0.00042267579844857,0.00042267591471754,-0.00043775357449561,0.00043775379749163,-0.00043775369705906,0.00043775392001526,-0.00055028262514871,0.00055028203398192,-0.00055028258797311,0.00055028207146699,-0.00055028258570429,0.00055028199453244,-0.00055028254851807,0.00055028203200681,-0.00051598027894605,0.00051597990578275,-0.00051598038846898,0.0005159800153029,-0.00051598042601381,0.0005159799785987,-0.00051598031636538,0.00051597986895492,-0.00042267546209544,0.00042267580336459,0.71635337683096,123866,2964,0.0020436204423516,0.0027373481559127,0.0019949402280441,17.47415397901,5.4993231832079e-05,5.4993231832079e-05,5.4993231832079e-05,4031329.2227096,0.0067990301098005
19891759,0.44186642678226,0.0073317880109035,0.0022754070002029,0.0028166605558718,0.0022397204548288,-0.00052502328991561,0.00052502318709389,-1.1406320396212e-10,-1.1406607628614e-10,-3.7440246829101e-11,9.0181632954193e-11,-0.0003128277851514,0.00031282839427234,-0.00038633813756899,0.00038633916626878,-0.00038633821740595,0.00038633924615613,-0.0003128282016606,0.00031282855245025,-0.00031282791430719,0.00031282826514109,-0.00038633826605009,0.00038633903744269,-0.00038633834635441,0.00038633911779597,-0.00062228693201838,0.0006222864128369,-0.00062228698411722,0.00062228646494205,-0.00062228688919813,0.00062228645652463,-0.0006222869412571,0.00062228650859122,-0.00058009092467224,0.0005800906042901,-0.00058009089489324,0.00058009057451505,-0.00058009096746323,0.00058009056127531,-0.00058009093745616,0.00058009053127645,-0.00031282807270592,0.00031282868178336,-3.2117400894273e-12,-1.2912833326861e-10,4.5638526766982e-12,-1.3660304080883e-10,-0.00071602672974497,0.00071602659873118,-0.00067584730384131,0.00067584707418673,-0.0007183631849985,0.00071836322248159,-0.00071836291863183,0.00071836270968652,-0.00071678590009798,0.0007167858611352,-0.00071678605159315,0.00071678591677513,-0.00071678590659317,0.00071678578189061,-0.00071678605813424,0.00071678583757991,-0.00067584734811472,0.00067584731417024,-0.00067584736983932,0.00067584705732183,-0.00071836328441448,0.00071836322885299,-0.0007183630180435,0.00071836271605101,-0.00067584728216847,0.00067584733108944,-1.5627929496415e-10,-1.5628216736353e-10,-0.00051011091122029,0.00051011049060914,-1.527619314558e-10,-1.157280947332e-11,-0.00044491800658754,0.00044491815040643,-0.00046221684506366,0.00046221695751969,-0.00046221689429784,0.00046221700671248,-0.00044491801781286,0.00044491787826307,-0.00044491814831453,0.00044491800876991,-0.00046221698719256,0.0004622168149105,-0.00046221703557984,0.00046221686325612,-0.00059079630992099,0.00059079563187936,-0.00059079626214506,0.00059079567962349,-0.00059079629437293,0.00059079561632569,-0.00059079624684613,0.00059079566431864,-0.0005530048903983,0.00055300446956488,-0.00055300499993357,0.00055300457909488,-0.00055300504807235,0.00055300453252126,-0.00055300493777537,0.00055300442222536,-0.00044491787597814,0.00044491801979676,0.66678161365177,123866,2964,0.0021855332550076,0.002978812337058,0.0021233478096456,18.684364197993,6.4674913583948e-05,6.4674913583948e-05,6.4674913583948e-05,4087865.0311863,0.00731445242268
20391759,0.47384306234156,0.0078796939951975,0.0024340860083795,0.0030566080293809,0.002388999957437,-0.00056086073865576,0.00056086087871104,-6.4988165067932e-11,-6.4991040200687e-11,4.2880029448946e-11,1.540852539042e-10,-0.00032815436743301,0.00032815528755997,-0.00040874566904736,0.00040874718451589,-0.00040874565198437,0.00040874716750434,-0.00032815486890178,0.00032815555789211,-0.00032815448362575,0.00032815517265926,-0.00040874578206883,0.00040874707073013,-0.0004087457659996,0.00040874705471296,-0.00066736977441771,0.00066736934241223,-0.00066736978762747,0.00066736935562977,-0.00066736973742084,0.00066736938040407,-0.00066736975031029,0.00066736939330158,-0.00062251703053228,0.00062251677309165,-0.00062251696521405,0.00062251670778087,-0.00062251706780016,0.00062251673498723,-0.0006225170029453,0.00062251667014064,-0.00032815475408405,0.00032815567417132,-7.614577585764e-12,-1.1909304116066e-10,-2.1746704660453e-12,-1.2437940324268e-10,-0.00077425458239355,0.00077425445685369,-0.00073022855388031,0.00073022834280891,-0.00077551094675221,0.00077551096938375,-0.00077551053412342,0.00077551033797719,-0.00077540704254616,0.00077540699537487,-0.0007754072008812,0.0007754070729351,-0.00077540708829721,0.00077540696754814,-0.00077540724667435,0.00077540704515523,-0.00073022867045831,0.00073022862887957,-0.00073022866972755,0.00073022838599979,-0.0007755110615818,0.00077551100435481,-0.00077551064895065,0.00077551037294087,-0.00073022855466295,0.00073022858574234,-9.4598477577769e-11,-9.4601387492549e-11,-0.00054280054769197,0.00054280045844856,-7.2477023060519e-11,4.8047255159924e-11,-0.0004728928766846,0.00047289325083457,-0.00049074275272947,0.00049074323974325,-0.00049074288388944,0.00049074337086031,-0.0004728928103898,0.0004728929368496,-0.00047289299984738,0.00047289312630555,-0.00049074287583709,0.00049074311675883,-0.00049074300562182,0.00049074324650047,-0.00063111717367043,0.00063111662353264,-0.0006311171332994,0.00063111666416497,-0.00063111713719291,0.00063111658705002,-0.00063111709674422,0.00063111662760511,-0.00059224207719376,0.00059224175357001,-0.00059224219408969,0.00059224187046202,-0.00059224223518808,0.00059224183015576,-0.0005922421182563,0.00059224171323051,-0.0004728926857078,0.00047289305985591,0.7310461920672,123866,2964,0.0023345871367697,0.003220623015965,0.0022592931007671,18.606960060287,6.4055680482297e-05,6.4055680482297e-05,6.4055680482297e-05,4246236.6535729,0.0078452704405198
20891759,0.50288065397518,0.0083442170645448,0.0025682718476866,0.003262219260325,0.0025137259565332,-0.00058693395529436,0.00058693436205614,-1.4608171848025e-11,-1.4610967115572e-11,1.4815894176515e-10,2.1475894298965e-10,-0.00032853180800116,0.00032853307184735,-0.0004175631168145,0.00041756517437193,-0.00041756298144625,0.00041756503905629,-0.00032853236492291,0.00032853348009747,-0.00032853188366423,0.00032853299887891,-0.00041756318699159,0.00041756510355719,-0.00041756305309473,0.00041756496971802,-0.00070470816617928,0.00070470782698302,-0.00070470812338944,0.00070470778419979,-0.00070470814401669,0.00070470784990027,-0.0007047081006545,0.0007047078065473,-0.00065542672301146,0.00065542651244266,-0.0006554266192705,0.0006554264087103,-0.00065542674559394,0.00065542648863819,-0.00065542664288807,0.00065542638593742,-0.00032853229165804,0.0003285335554643,-2.1167982950298e-11,-9.0465268916147e-11,-1.9013049835335e-11,-9.3017690325616e-11,-0.00082499911159119,0.00082499900061215,-0.00077712983835523,0.00077712967424297,-0.00082756505300292,0.00082756503309402,-0.00082756443441032,0.00082756427805789,-0.0008249865148576,0.00082498645026661,-0.00082498660986955,0.00082498649834574,-0.00082498654574582,0.0008249864373968,-0.00082498664080035,0.00082498648551725,-0.00077713016433436,0.00077713010474241,-0.00077712998733643,0.00077712977922511,-0.00082756516409397,0.00082756509688104,-0.00082756454548791,0.00082756434183239,-0.00077713001540303,0.00077712999980818,-3.0326655874201e-11,-3.0329631332935e-11,-0.00056516124001536,0.00056516154574972,4.197044967716e-11,1.1248064089657e-10,-0.00048604754658581,0.00048604817910696,-0.00050627896732368,0.00050627992516851,-0.00050627920027591,0.00050628015807828,-0.00048604735616956,0.00048604783420427,-0.00048604762225351,0.00048604810028507,-0.00050627904272877,0.00050627985054575,-0.00050627927364507,0.00050628008141409,-0.00066342947904621,0.00066342907649334,-0.00066342945577594,0.000663429100355,-0.00066342941320089,0.0006634290106432,-0.00066342938951608,0.00066342903408967,-0.00062087937639098,0.00062087913331751,-0.00062087950111,0.00062087925803878,-0.0006208795253467,0.00062087923368856,-0.0006208794014074,0.00062087910974863,-0.00048604727734417,0.00048604790987292,0.68432815189094,123866,2964,0.0024430596843312,0.003431304042123,0.0023522965807207,17.403442404187,5.4427539233498e-05,5.4427539233498e-05,5.4427539233498e-05,4268413.7928657,0.0082607790238015
21391759,0.52760826059209,0.0087312730462649,0.0026803533324672,0.0034341021651369,0.0026168175486608,-0.00060799691612674,0.00060799755738631,3.0518619383009e-11,3.0515783587288e-11,2.4617542909786e-10,2.5113166946018e-10,-0.00033425820941209,0.00033425973659106,-0.0004281003385334,0.00042810282904138,-0.00042810009414781,0.00042810258470935,-0.00033425879263804,0.00033426028800427,-0.00033425822741884,0.00033425972282549,-0.0004281003491946,0.00042810281838689,-0.0004281001066819,0.00042810257592756,-0.00073342086847471,0.00073342062559988,-0.0007334207682022,0.00073342052533544,-0.00073342086649752,0.00073342062775558,-0.00073342076545544,0.00073342052672153,-0.00068046564472378,0.00068046547267089,-0.00068046550794731,0.00068046533590007,-0.00068046564707629,0.00068046546892671,-0.00068046551177973,0.00068046533363617,-0.00033425877791909,0.000334260305062,-3.8414466023255e-11,-4.8618829259389e-11,-4.2401016847158e-11,-4.5900680868648e-11,-0.00086276979434827,0.00086276970717637,-0.00081058937561959,0.00081058928398617,-0.00086344214362371,0.0008634420665952,-0.00086344135140988,0.00086344125371119,-0.00086441866800819,0.00086441858272929,-0.00086441866276293,0.0008644185786337,-0.00086441865365301,0.00086441856503509,-0.00086441864844866,0.000864418560982,-0.00081058990706557,0.00081058982227232,-0.00081058953814121,0.00081058944233979,-0.00086344223321426,0.00086344215613841,-0.00086344144099314,0.00086344134324515,-0.00081058974459264,0.00081058966397106,2.336072411062e-11,2.3357771818457e-11,-0.00058343755960895,0.00058343821603946,1.5197402461404e-10,1.5034020401144e-10,-0.0004998604850304,0.00049986130015999,-0.00052103360762044,0.00052103494253373,-0.00052103393525095,0.0005210352701222,-0.00049986015189473,0.00049986095018515,-0.00049986049085596,0.00049986128914742,-0.00052103361339447,0.00052103493818241,-0.00052103393827394,0.0005210352630179,-0.0006879985405465,0.00068799829245157,-0.00068799854166392,0.00068799829225198,-0.00068799844470262,0.00068799819660207,-0.00068799844507524,0.00068799819565735,-0.0006434391245404,0.00064343894037473,-0.00064343925913175,0.00064343907496105,-0.00064343925908803,0.00064343907393732,-0.0006434391261025,0.00064343894095676,-0.00049986014114271,0.00049986095627645,0.67004884739747,123866,2964,0.0025306632834737,0.0035880785269487,0.0024283015033549,15.325958155261,3.7807665242085e-05,3.7807665242085e-05,3.7807665242085e-05,4420586.4851566,0.008583877139718
21891759,0.54973299405367,0.0090665190210571,0.0027771767616635,0.0035837442492115,0.0027055980101822,-0.00062649247373153,0.00062649300462894,2.9433386418484e-12,2.9405081106721e-12,2.1389420115692e-10,2.0326454515032e-10,-0.00033665731779143,0.00033665865211402,-0.00043567759100904,0.00043567983655183,-0.00043567739761716,0.00043567964321328,-0.00033665782626411,0.0003366591623923,-0.00033665731867329,0.00033665865484856,-0.00043567758621012,0.00043567984217199,-0.00043567739426153,0.0004356796502798,-0.00075951615266004,0.00075951587442317,-0.00075951606522471,0.00075951578699468,-0.00075951615531484,0.00075951587148004,-0.00075951606731601,0.0007595157834903,-0.00070297843092354,0.00070297822035722,-0.00070297831058775,0.00070297810002504,-0.00070297842832604,0.00070297822216465,-0.00070297830897065,0.00070297810281534,-0.00033665782780962,0.00033665916209109,-4.1122809844034e-11,-3.5095186694262e-11,-5.3936669473977e-11,-2.3858367937354e-11,-0.00089752998060095,0.00089752990398169,-0.00084174939077751,0.00084174933747122,-0.00089766542309037,0.00089766532973103,-0.00089766466613732,0.00089766458446336,-0.00089988508956095,0.00089988499987956,-0.00089988503710057,0.00089988496928446,-0.00089988502856019,0.00089988494452474,-0.00089988497614169,0.00089988491397374,-0.00084174991480955,0.00084174981263423,-0.00084174951195154,0.00084174946489363,-0.00089766547996765,0.00089766540848234,-0.00089766472300408,0.00089766466320592,-0.00084174979368339,0.0008417496852635,-1.6212487903447e-11,-1.6215430217973e-11,-0.00059922265313892,0.00059922314649383,1.2334275998541e-10,8.9004424086233e-11,-0.00051032659507448,0.00051032723230069,-0.0005327929943424,0.00053279408622729,-0.00053279328081983,0.00053279437266453,-0.00051032628392517,0.0005103269713145,-0.00051032656768597,0.00051032725506991,-0.00053279296739321,0.00053279411430729,-0.00053279325142941,0.00053279439829585,-0.00071022788429954,0.00071022758986268,-0.00071022789595235,0.00071022757891816,-0.00071022779806914,0.00071022750362864,-0.0007102278091613,0.00071022749212224,-0.00066327747072399,0.00066327721049324,-0.00066327760788414,0.00066327734764751,-0.00066327759704015,0.00066327735781663,-0.0006632774610777,0.00066327722185629,-0.00051032630705748,0.0005103269442885,0.65030596713663,123866,2964,0.0026075952337541,0.0037323361628079,0.0024939475369087,13.951553984472,2.6812431875775e-05,2.6812431875775e-05,2.6812431875775e-05,4497165.5985074,0.0088732377761906
22391759,0.57285370502563,0.0094264472507865,0.0028806013938673,0.0037455067057201,0.0028003391511992,-0.00065099370996966,0.00065099376741576,-9.6911589740986e-11,-9.6914489681806e-11,2.6801646125167e-11,8.2481274900728e-11,-0.00034455505711615,0.00034455573671693,-0.00044898623583718,0.0004489875314254,-0.00044898627315779,0.00044898756880018,-0.00034455542309419,0.00034455598408803,-0.00034455511674135,0.00034455567778469,-0.00044898629449695,0.00044898747382874,-0.00044898633211933,0.00044898751150725,-0.00079176531290779,0.00079176485883965,-0.00079176532330942,0.00079176486924838,-0.00079176529315142,0.00079176487843456,-0.00079176530356278,0.00079176488885403,-0.00073197493050937,0.00073197462422666,-0.00073197487797535,0.00073197457169728,-0.00073197495000192,0.00073197460506806,-0.00073197489711554,0.00073197455218918,-0.00034455536350899,0.00034455604307293,-1.8259225075561e-11,-7.4325363613367e-11,-3.8490451668858e-11,-5.492077849514e-11,-0.00093934684828189,0.00093934675600352,-0.00088012055214815,0.00088012045970743,-0.00093895124668681,0.00093895121373818,-0.00093895079623626,0.00093895065407459,-0.00094223715440817,0.00094223708936418,-0.00094223716248454,0.00094223708442203,-0.00094223708254681,0.00094223697775667,-0.0009422370906645,0.00094223697285608,-0.00088012076884084,0.00088012067470668,-0.00088012058951678,0.00088012046074399,-0.00093895127897105,0.00093895123586464,-0.00093895082851014,0.00093895067619391,-0.00088012073152317,0.00088012067372452,-1.5052835528744e-10,-1.5053124599141e-10,-0.0006207799634245,0.0006207797311594,-7.5555529183388e-11,-6.0010331909377e-11,-0.00052676607725228,0.0005267661808247,-0.00055037534191722,0.00055037553513246,-0.00055037543543754,0.00055037562861207,-0.00052676600028929,0.00052676606543436,-0.00052676609587419,0.00052676616101881,-0.00055037536147267,0.00055037551551741,-0.00055037545392945,0.00055037560792777,-0.00073835347639172,0.00073835291055104,-0.00073835347039303,0.00073835291648181,-0.00073835344553167,0.0007383528796882,-0.00073835343968228,0.00073835288576568,-0.00068941321690172,0.00068941276649851,-0.00068941335089631,0.00068941290048576,-0.00068941335718063,0.00068941289536066,-0.00068941322268714,0.00068941276086993,-0.00052676598065628,0.00052676608423349,0.66901198509521,123866,2964,0.0027094833684282,0.0039058535904086,0.0025835814736039,14.800851516188,3.3606812129507e-05,3.3606812129507e-05,3.3606812129507e-05,4552815.5885678,0.0092416046638858
22891759,0.59636469714175,0.0097508001257127,0.0029746526685,0.0038907685487936,0.0028853789084191,-0.00067175038891429,0.00067175050904519,-8.1586438737359e-11,-8.15893067968e-11,3.3391962266121e-11,1.1650234077905e-10,-0.00034675961388448,0.0003467603985902,-0.00045705072737297,0.00045705217546253,-0.00045705074956224,0.00045705219770612,-0.0003467600259228,0.00034676063619247,-0.00034675970143159,0.00034676031174823,-0.00045705081289679,0.00045705209027382,-0.00045705083555031,0.00045705211298341,-0.00082131313008015,0.00082131269356903,-0.00082131313620555,0.00082131269970063,-0.00082131310171729,0.00082131272224605,-0.00082131310775402,0.00082131272829033,-0.00075677703815034,0.00075677676667619,-0.00075677697848607,0.00075677670701933,-0.00075677706662522,0.00075677673816476,-0.00075677700686876,0.00075677667841473,-0.0003467599387825,0.00034676072344672,-8.2128326624232e-12,-9.2051184923384e-11,-3.0815604328705e-11,-6.9881015280378e-11,-0.00097787433137519,0.0009778742317653,-0.00091446873702519,0.00091446862422264,-0.00097714986928411,0.00097714986369116,-0.00097714942304846,0.00097714925325919,-0.00098146045661496,0.00098146039997963,-0.00098146048983854,0.00098146040618098,-0.00098146041496644,0.00098146030125739,-0.00098146044823143,0.00098146030750039,-0.00091446893661414,0.00091446884835052,-0.00091446879607543,0.00091446862860175,-0.00097714991536399,0.00097714988476811,-0.00097714946911675,0.00097714927432972,-0.0009144688776137,0.00091446884402465,-1.3438151313959e-10,-1.3438443144198e-10,-0.00063823552935034,0.00063823537009913,-6.9970102873151e-11,-3.2313572158728e-11,-0.00053681963911443,0.00053681982046725,-0.00056263833977219,0.00056263863758213,-0.00056263844579273,0.00056263874355861,-0.00053681957505991,0.00053681967291064,-0.00053681968023205,0.00053681977808012,-0.00056263838139758,0.00056263859606902,-0.00056263848631897,0.00056263870094562,-0.00076352390728107,0.00076352336533621,-0.00076352389408545,0.0007635233784754,-0.00076352387389075,0.00076352333194096,-0.00076352386078678,0.00076352334517164,-0.00071105334895837,0.00071105293614922,-0.00071105348590774,0.00071105307309462,-0.00071105349960153,0.00071105306049241,-0.00071105336227434,0.00071105292316872,-0.00053681953273196,0.00053681971409663,0.59348875359801,123866,2964,0.0027958156751864,0.0040656911163643,0.0026561715106491,15.34106139146,3.7928491131676e-05,3.7928491131676e-05,3.7928491131676e-05,4568401.7577723,0.0095633932040688
23391759,0.61974626690149,0.010090832096041,0.003072831333531,0.0040435838660592,0.0029744168964507,-0.00069474071116473,0.00069474088963351,-6.8591639954836e-11,-6.8594529366566e-11,4.6668204112516e-11,1.3769848817041e-10,-0.00035796443315785,0.00035796530109959,-0.00047195247018154,0.00047195404980844,-0.00047195247476817,0.00047195405445256,-0.00035796487354227,0.00035796554994924,-0.00035796452936326,0.0003579652058141,-0.00047195256354563,0.00047195395642222,-0.0004719525687371,0.00047195396166942,-0.00085061817658458,0.00085061776020782,-0.00085061817639008,0.00085061776002062,-0.00085061814585154,0.00085061779147762,-0.00085061814548825,0.00085061779112189,-0.00078275109445261,0.00078275084654212,-0.00078275102941706,0.00078275078151149,-0.00078275112550509,0.00078275081521765,-0.00078275106058028,0.00078275075029872,-0.00035796477807729,0.00035796564597903,-4.9952815152257e-12,-9.7189829413749e-11,-2.8521969239594e-11,-7.3955016963967e-11,-0.0010146308994551,0.0010146307980347,-0.00094696098032218,0.00094696086211988,-0.0010112786652245,0.0010112786681289,-0.0010112782031185,0.0010112780251353,-0.0010207555313094,0.0010207554769642,-0.0010207555772966,0.0010207554925005,-0.001020755507857,0.0010207553916933,-0.0010207555538836,0.0010207554072705,-0.00094696117912599,0.00094696109272799,-0.00094696105436335,0.00094696087606081,-0.0010112787188022,0.0010112786926405,-0.0010112782566853,0.0010112780496361,-0.00094696110513411,0.00094696107883738,-1.2041602683627e-10,-1.204189404605e-10,-0.0006586339376326,0.0006586338517359,-5.775583449596e-11,-1.4230675314108e-11,-0.00055450130983152,0.00055450155221242,-0.00058074965379196,0.00058075004544528,-0.00058074977497672,0.00058075016658737,-0.00055450124331475,0.00055450138918143,-0.00055450135733771,0.00055450150319539,-0.00058074970152448,0.00058074999797181,-0.00058074982153682,0.00058075011793993,-0.00078885181003662,0.00078885129702906,-0.00078885179502348,0.00078885131202405,-0.00078885177326237,0.00078885126025068,-0.00078885175827733,0.00078885127527283,-0.00073505680497039,0.00073505641932935,-0.00073505694483805,0.00073505655919239,-0.0007350569604915,0.00073505654449336,-0.00073505682039276,0.0007350564043988,-0.00055450119432948,0.00055450143672182,0.62584069172871,123866,2964,0.0028913911229977,0.0042181471867436,0.002740971989149,15.634029297031,4.0272234376251e-05,4.0272234376251e-05,4.0272234376251e-05,4704113.387244,0.0098994766678795
23891759,0.64448805272086,0.010504099370386,0.003190160307543,0.004232207880204,0.0030817311826393,-0.00072203745793014,0.00072203739310292,-1.194409849246e-10,-1.1944387363047e-10,-5.3060886680746e-11,7.8220348069118e-11,-0.00036106028494173,0.00036106080419281,-0.00048322356890687,0.00048322465866009,-0.0004832237005667,0.00048322479037429,-0.00036106065710267,0.00036106091092461,-0.0003610604172981,0.00036106067116627,-0.00048322370077454,0.00048322452661142,-0.00048322383248795,0.00048322465838163,-0.0008879786598097,0.00088797815370036,-0.00088797871805686,0.00088797821195319,-0.000887978615606,0.00088797819862983,-0.00088797867396267,0.00088797825699472,-0.0008175938390781,0.00081759354775623,-0.00081759380900484,0.00081759351768917,-0.00081759388347559,0.00081759350358546,-0.00081759385286406,0.00081759347297981,-0.00036106052432366,0.0003610610435329,7.4047364374435e-12,-1.2266069365479e-10,-1.6129913003259e-11,-9.8874058677694e-11,-0.0010662181125743,0.0010662179985653,-0.00099637112653394,0.00099637097261396,-0.001065438757519,0.0010654387970857,-0.0010654384588431,0.0010654382437237,-0.0010698462956789,0.0010698462556904,-0.0010698464065751,0.0010698463095038,-0.0010698462900567,0.0010698461612382,-0.0010698464009944,0.0010698462150894,-0.00099637112591374,0.00099637105028352,-0.00099637116298069,0.00099637092310797,-0.0010654388071648,0.0010654387922977,-0.0010654385084761,0.001065438238925,-0.00099637108951162,0.00099637109983684,-1.883629862283e-10,-1.8836590149219e-10,-0.00068174821527612,0.00068174773875473,-1.7060202555611e-10,-8.7982220975602e-11,-0.00056969185969925,0.00056969182012467,-0.0005978051093932,0.00059780501725776,-0.00059780512420658,0.00059780503202192,-0.00056969193743767,0.00056969172947547,-0.00056969194409946,0.00056969173613487,-0.00059780519416776,0.00059780493211882,-0.00059780520855124,0.00059780494645483,-0.00082103349630698,0.00082103283622936,-0.00082103346776832,0.00082103286435581,-0.00082103349149729,0.00082103283141414,-0.000821033463352,0.00082103285993412,-0.0007652286263474,0.00076522815464742,-0.00076522876409213,0.00076522829238779,-0.00076522879303711,0.00076522826534944,-0.00076522865417422,0.00076522812648761,-0.00056969185333454,0.00056969181376908,0.72029407872103,123866,2964,0.0030049185976613,0.0044320891558166,0.0028370810999293,16.93078561784,5.0646284942717e-05,5.0646284942717e-05,5.0646284942717e-05,4621548.1546287,0.010327376628782
24391759,0.66979884131269,0.010913572857619,0.003307165195855,0.0044194120979677,0.0031869955637967,-0.0007468568483917,0.00074685685352738,-1.0220307900139e-10,-1.0220581756478e-10,-3.7611011627059e-11,1.0619988384292e-10,-0.00035779449349179,0.00035779510072188,-0.00048907578533614,0.00048907701918399,-0.00048907589918157,0.00048907713307948,-0.00035779489731968,0.00035779521282161,-0.00035779463910039,0.00035779495465074,-0.00048907592946053,0.00048907687430952,-0.0004890760435396,0.00048907698845189,-0.00092474084604421,0.00092474036911816,-0.00092474090066039,0.00092474042373984,-0.00092474079804841,0.0009247404181482,-0.00092474085266719,0.00092474047277248,-0.00085027720143246,0.00085027694389404,-0.00085027716477194,0.00085027690724818,-0.00085027724987438,0.00085027689533865,-0.00085027721295249,0.00085027685842749,-0.0003577947516984,0.00035779535889275,1.1615619621382e-11,-1.3137036321823e-10,-1.0126741197508e-11,-1.0912992660786e-10,-0.0011184664739596,0.0011184663556444,-0.0010455540498675,0.0010455538799152,-0.0011203572632834,0.0011203573165236,-0.0011203569493882,0.0011203567222726,-0.0011193248410715,0.001119324805413,-0.0011193249864749,0.0011193248839913,-0.0011193248718872,0.0011193247399607,-0.0011193250173323,0.0011193248185782,-0.001045554020897,0.0010455539528418,-0.0010455541075604,0.0010455538432182,-0.0011203573274621,0.0011203573156505,-0.0011203570135548,0.0011203567213906,-0.0010455539632496,0.0010455539895894,-1.6821405947374e-10,-1.682171180531e-10,-0.00070120734939458,0.00070120695174268,-1.6151363267821e-10,-6.3169764846751e-11,-0.00057771520619207,0.00057771523421468,-0.00060917403605173,0.00060917403930786,-0.00060917406445175,0.00060917406766345,-0.00057771529594443,0.00057771512315109,-0.00057771530668428,0.00057771513389402,-0.00060917413656896,0.00060917393858861,-0.00060917416445773,0.00060917396643414,-0.00085174298640834,0.0008517423619072,-0.00085174295284279,0.00085174239513393,-0.00085174297879046,0.00085174235428585,-0.00085174294552953,0.00085174238781879,-0.00079229637342447,0.00079229594733399,-0.00079229651208483,0.00079229608599225,-0.00079229654623633,0.00079229605354191,-0.00079229640666376,0.0007922959139635,-0.00057771519545597,0.0005777152234827,0.6966732932835,123866,2964,0.0031081762539313,0.0046487160867746,0.0029180181466689,17.854349030818,5.8034792246542e-05,5.8034792246542e-05,5.8034792246542e-05,4490140.8086623,0.010732472738536
24891759,0.69473057450729,0.011269610370684,0.0034108209844305,0.004580185574867,0.0032786038113869,-0.00076960135405769,0.00076960146748477,-8.012694870613e-11,-8.0129713798129e-11,1.1737767301619e-12,1.3790400191417e-10,-0.00036395683657398,0.00036395759803998,-0.00050005423809472,0.00050005570383524,-0.00050005430849778,0.00050005577429759,-0.00036395726922146,0.00036395775049692,-0.00036395697665334,0.00036395745797759,-0.00050005437553026,0.00050005556537564,-0.00050005444640398,0.00050005563631039,-0.00095619963401109,0.00095619919490748,-0.00095619967247905,0.0009561992333789,-0.00095619958857723,0.00095619924150391,-0.00095619962692016,0.00095619927985128,-0.00087665491709343,0.00087665468516363,-0.00087665487066173,0.0008766546387398,-0.00087665496314433,0.00087665463869545,-0.0008766549167625,0.00087665459232142,-0.00036395712962273,0.00036395789104779,8.732010243081e-12,-1.2800455607441e-10,-1.1493562158977e-11,-1.0729222926755e-10,-0.0011593193813444,0.0011593192634789,-0.0010806810544732,0.0010806808857419,-0.0011587030024304,0.0011587030489186,-0.0011587026187045,0.001158702396823,-0.0011625998485105,0.0011625998090333,-0.0011626000026008,0.0011625998995532,-0.0011625998981027,0.0011625997676241,-0.0011626000522316,0.0011625998581845,-0.0010806810782684,0.0010806810099324,-0.0010806811345947,0.0010806808758768,-0.0011587030765806,0.0011587030604203,-0.0011587026928431,0.0011587024083148,-0.0010806809981926,0.0010806810198461,-1.3917236117218e-10,-1.3917545310897e-10,-0.00071981952489586,0.00071981928636474,-1.2115125628728e-10,-2.6839845693491e-11,-0.00059028055705695,0.00059028071106065,-0.00062347666051469,0.00062347687493718,-0.00062347672509212,0.00062347693946746,-0.00059028061580437,0.0005902805744818,-0.00059028065452819,0.00059028061320254,-0.00062347675765852,0.00062347677780635,-0.00062347682151991,0.00062347684162209,-0.0008777513484142,0.0008777507817293,-0.00087775131642703,0.00087775081350748,-0.00087775133183644,0.00087775076514678,-0.00087775130002559,0.00087775079710102,-0.00081543628932917,0.00081543590848424,-0.00081543642733235,0.00081543604648546,-0.00081543646007878,0.00081543601509984,-0.00081543632147476,0.00081543587649676,-0.00059028051779981,0.0005902806718131,0.61363158009265,123866,2964,0.0032027420112679,0.0048180431594307,0.0029954051009748,18.325615102246,6.1804920817966e-05,6.1804920817966e-05,6.1804920817966e-05,4547464.8702352,0.011077503557154
25391759,0.72075309827504,0.011702972917112,0.0035352599916412,0.0047775472872557,0.003390165638215,-0.00080051939453084,0.00080051923674339,-1.3665163809214e-10,-1.3665440330178e-10,-1.043806156409e-10,6.7859371060442e-11,-0.00037948453491392,0.00037948492502341,-0.00052046802776003,0.00052046894373736,-0.00052046823388497,0.00052046914992091,-0.00037948490317391,0.00037948494925785,-0.00037948470611945,0.0003794847522521,-0.00052046819907789,0.00052046877138568,-0.00052046840509895,0.00052046897746768,-0.0009947788435366,0.00099477830249352,-0.00099477894780883,0.00099477840677233,-0.00099477878609047,0.00099477836121846,-0.00099477889055263,0.00099477846568758,-0.00091260424028669,0.00091260395217087,-0.00091260423092808,0.00091260394281881,-0.00091260429812674,0.00091260389453559,-0.00091260428806216,0.00091260388447791,-0.00037948473119995,0.00037948512126872,1.8389707912929e-11,-1.5112384611399e-10,-2.2717501584156e-13,-1.3152650324697e-10,-0.0012093259896569,0.0012093258587681,-0.0011262548651058,0.0011262546603335,-0.0012068204967739,0.0012068205738557,-0.0012068202738177,0.0012068200188643,-0.0012142935449533,0.0012142935175107,-0.0012142937772706,0.0012142936604012,-0.001214293613712,0.0012142934712596,-0.0012142938460677,0.0012142936141874,-0.0011262546917351,0.001126254633593,-0.0011262549039002,0.0011262545866647,-0.0012068205699545,0.0012068205601875,-0.0012068203469854,0.001206820005184,-0.0011262546529847,0.001126254707312,-2.1355902485588e-10,-2.1356213947029e-10,-0.00074679233730773,0.00074679166463316,-2.4178830015105e-10,-1.098702236945e-10,-0.00061453829378502,0.00061453814913395,-0.00064780439379622,0.00064780407897054,-0.00064780434513335,0.00064780403026189,-0.00061453849048638,0.00061453808225224,-0.00061453842639114,0.00061453801814925,-0.0006478045264135,0.00064780394567853,-0.00064780447778288,0.00064780389700217,-0.00091076428572347,0.00091076355024886,-0.00091076424062877,0.00091076359473905,-0.00091076430341255,0.00091076356793351,-0.00091076425888405,0.00091076361298938,-0.00084802059966164,0.00084802011911846,-0.00084802073572323,0.00084802025517655,-0.00084802078125656,0.00084802021201832,-0.00084802064363355,0.0008480200743968,-0.00061453835923175,0.00061453821459173,0.71638642109267,123866,2964,0.0033312399087592,0.0050252748433588,0.0031075097898952,19.829549711136,7.3836397689084e-05,7.3836397689084e-05,7.3836397689084e-05,4646571.4687915,0.011530417443016
25891759,0.74660084507047,0.012139314737599,0.0036598055536189,0.0049781350123813,0.0035013741715985,-0.00082605228854986,0.00082605226591414,-1.0588308978546e-10,-1.0588583308401e-10,-6.242485712523e-11,1.1030618936869e-10,-0.00037151123977116,0.00037151179168091,-0.00052357282620147,0.00052357400886238,-0.00052357298148374,0.00052357416420358,-0.00037151164563326,0.00037151184944394,-0.00037151141334716,0.00037151161721217,-0.00052357299820849,0.00052357383533364,-0.00052357315371754,0.00052357399090513,-0.0010339533415934,0.0010339528587741,-0.001033953427354,0.0010339529445396,-0.0010339532843598,0.0010339529175107,-0.0010339533701268,0.0010339530032839,-0.00094758445272879,0.00094758421208714,-0.00094758442936818,0.0009475841887331,-0.00094758451063409,0.00094758415391496,-0.00094758448702179,0.00094758413031058,-0.0003715114720074,0.00037151202387868,1.9046085861033e-11,-1.520332568505e-10,2.959985692116e-12,-1.3488630968164e-10,-0.0012667366993264,0.001266736568227,-0.0011814934053049,0.0011814931941309,-0.0012694370734051,0.0012694371539588,-0.0012694367947349,0.0012694365397778,-0.0012668408940736,0.0012668408674676,-0.0012668411461824,0.0012668410274047,-0.0012668409951089,0.0012668408541657,-0.0012668412472544,0.0012668410141387,-0.0011814932442715,0.0011814931921976,-0.0011814934736647,0.0011814931493099,-0.0012694371611854,0.0012694371508704,-0.0012694368825041,0.0012694365366759,-0.0011814931759564,0.001181493237066,-1.7491231697893e-10,-1.7491544212978e-10,-0.00076556085987633,0.00076556037112545,-2.0314909889771e-10,-6.5746378669732e-11,-0.00061902968203531,0.00061902966719106,-0.00065639047627434,0.00065639038356317,-0.00065639046734023,0.00065639037458492,-0.00061902986940727,0.00061902957731061,-0.0006190298210706,0.00061902952896476,-0.0006563906149095,0.00065639024457026,-0.00065639060571905,0.00065639023533516,-0.00094283896814053,0.00094283831380287,-0.00094283892157272,0.00094283835995371,-0.00094283897540668,0.00094283832106652,-0.00094283892921816,0.00094283836759489,-0.00087581699202433,0.00087581658457793,-0.00087581712760422,0.00087581672015498,-0.00087581717485983,0.00087581667477995,-0.00087581703818272,0.00087581653810315,-0.00061902973092055,0.00061902971609269,0.72745708413827,123866,2964,0.0034374911755678,0.0052631508403523,0.0031855942345028,20.751055061482,8.1208440491859e-05,8.1208440491859e-05,8.1208440491859e-05,4433872.0965297,0.011957665490039
26391759,0.77015022809669,0.012570679862804,0.0037838224541709,0.0051754970923101,0.0036113603163235,-0.00085059196016676,0.00085059228212597,-3.8281684844335e-11,-3.8284473141507e-11,7.2830576980278e-11,1.9902585962455e-10,-0.00037314148448402,0.00037314249788507,-0.00053248611652547,0.00053248802186187,-0.00053248611422493,0.00053248801962314,-0.00037314194195834,0.00037314269120533,-0.00037314161696677,0.00037314236627012,-0.00053248624396611,0.00053248789269946,-0.0005324862425591,0.00053248789135639,-0.001068748604404,0.0010687482481318,-0.0010687486185329,0.0010687482622671,-0.0010687485629408,0.0010687482910465,-0.0010687485766938,0.0010687483048086,-0.00097943244290488,0.00097943226760487,-0.00097943238689252,0.00097943221160497,-0.00097943248534135,0.00097943222410495,-0.00097943243001627,0.0009794321687905,-0.00037314181088884,0.00037314282425225,3.9509324781954e-12,-1.2378615812372e-10,-1.1387158137488e-11,-1.0787320713489e-10,-0.0013167541476488,0.0013167540292261,-0.0012279230283623,0.001227922854927,-0.0013202430602112,0.0013202430974274,-0.001320242543059,0.0013202423290517,-0.0013155161789179,0.0013155161336496,-0.0013155163775444,0.0013155162707267,-0.001315516285101,0.0013155161573138,-0.0013155164837654,0.0013155162944256,-0.0012279231061721,0.0012279230415964,-0.0012279231533565,0.001227922896369,-0.0013202431562684,0.0013202431308891,-0.0013202426390999,0.0013202423625003,-0.0012279229812229,0.001227923000201,-8.2943739410622e-11,-8.2946841972091e-11,-0.00078427619321636,0.00078427625236681,-5.1027214330099e-11,4.2276776319092e-11,-0.00062997408069317,0.00062997444704934,-0.00066926520154147,0.00066926580888972,-0.00066926532261687,0.00066926592992211,-0.00062997414212584,0.00062997431027862,-0.00062997417912864,0.00062997434726547,-0.00066926529873849,0.00066926571206607,-0.00066926541878963,0.0006692658320711,-0.00097093709167757,0.00097093664584077,-0.00097093706053077,0.00097093667703232,-0.00097093706301093,0.00097093661717169,-0.00097093703179928,0.00097093664829454,-0.00090222725013245,0.00090222696937735,-0.00090222738034367,0.00090222709958932,-0.00090222741263233,0.00090222706796047,-0.00090222728244022,0.00090222693776807,-0.00062997404221128,0.00062997440858802,0.78667634666428,123866,2964,0.003539549781735,0.0054703128771296,0.0032634281134428,20.418327935845,7.8546623486764e-05,7.8546623486764e-05,7.8546623486764e-05,4394193.7729141,0.012349471335864
26891759,0.79305665213514,0.012971236230023,0.0038998335634572,0.0053580666020967,0.0037133360644691,-0.00087433193354792,0.0008743319367274,-1.048835419092e-10,-1.0488635991135e-10,-4.1377062135625e-11,9.9419738515821e-11,-0.00037016498736179,0.00037016552019912,-0.00053808298636452,0.00053808419778107,-0.00053808313436713,0.00053808434584299,-0.00037016535884856,0.00037016560665864,-0.00037016512948133,0.00037016537734461,-0.00053808312713156,0.00053808405580221,-0.00053808327536133,0.00053808420409309,-0.001104099442702,0.0011040989780321,-0.0011040995275159,0.0011040990628514,-0.0011040993957329,0.0011040990261626,-0.0011040994805761,0.0011040991110121,-0.0010104443087463,0.0010104440579901,-0.0010104442910161,0.0010104440402669,-0.0010104443561634,0.0010104440104861,-0.0010104443381088,0.0010104439924374,-0.00037016521661389,0.00037016574941166,7.8598878858203e-12,-1.3151781160165e-10,-7.9204030077131e-12,-1.1500350234143e-10,-0.0013675331403944,0.0013675330182951,-0.0012751503945229,0.0012751502118968,-0.001373209583812,0.0013732096320654,-0.0013732092430801,0.0013732090183414,-0.0013640118014119,0.0013640117631468,-0.0013640120534162,0.0013640119432753,-0.0013640119002372,0.0013640117685011,-0.0013640121522773,0.0013640119486661,-0.0012751502738054,0.0012751502111166,-0.0012751504570261,0.0012751501823141,-0.0013732096647861,0.0013732096426012,-0.0013732093240396,0.0013732090288626,-0.00127515021135,0.0012751502407459,-1.7284724367947e-10,-1.7285035695201e-10,-0.00080135123700505,0.0008013507783946,-1.8382174645271e-10,-7.728250951356e-11,-0.00063570999742636,0.0006357099619232,-0.00067822469161398,0.00067822461732462,-0.000678224688642,0.00067822461430726,-0.00063571017999589,0.00063570992782003,-0.00063571010606183,0.00063570985387836,-0.00067822480002684,0.00067822450857954,-0.00067822479673457,0.00067822450524257,-0.00099920335916848,0.00099920273009354,-0.000999203322853,0.00099920276603266,-0.00099920336605859,0.00099920273698011,-0.00099920333010172,0.00099920277327587,-0.00092707588873675,0.00092707547612002,-0.00092707601969874,0.00092707560707782,-0.00092707605661647,0.00092707557189851,-0.00092707592461056,0.00092707543989519,-0.00063571007181192,0.00063571003632071,0.750276560455,123866,2964,0.00363831238655,0.0056805934637491,0.0033344649987299,21.226273896312,8.5010191170498e-05,8.5010191170498e-05,8.5010191170498e-05,4268196.4211774,0.012734386000753
27391759,0.81534845161299,0.013348484859715,0.0040102914168243,0.0055282232846286,0.0038099701582623,-0.00089877722953357,0.00089877717698524,-1.145491200736e-10,-1.145519793686e-10,-6.7440153293727e-11,8.8978381484758e-11,-0.00037718169280515,0.00037718215294351,-0.00055027692535657,0.00055027802331527,-0.00055027710655032,0.00055027820456949,-0.00037718206392448,0.00037718220948314,-0.00037718184952384,0.00037718199513557,-0.00055027708120391,0.00055027786610383,-0.00055027726252751,0.00055027804749032,-0.0011373861501585,0.0011373856656378,-0.001137386254272,0.0011373857697566,-0.0011373860980665,0.0011373857190354,-0.0011373862022682,0.001137385823244,-0.0010395027097835,0.0010395024561938,-0.0010395027004956,0.0010395024469129,-0.0010395027623558,0.001039502403613,-0.0010395027526052,0.0010395023938695,-0.00037718190686814,0.00037718236696338,1.2617906237508e-11,-1.4167782722014e-10,-2.7452226720965e-12,-1.2535821735942e-10,-0.0014119627043222,0.0014119625770189,-0.0013141641467601,0.0013141639488787,-0.0014161135688675,0.0014161136315788,-0.0014161132728033,0.0014161130333392,-0.0014099260298054,0.0014099259968386,-0.0014099263210989,0.0014099262055631,-0.0014099261469023,0.0014099260102679,-0.0014099264382316,0.0014099262190275,-0.0013141639667299,0.001314163908974,-0.0013141642042067,0.0013141639041974,-0.0014161136558632,0.0014161136377087,-0.0014161133597832,0.0014161130394558,-0.001314163909326,0.0013141639536992,-1.8736863470065e-10,-1.8737173965726e-10,-0.00082051525936008,0.00082051469783511,-2.1545922894198e-10,-9.2899467999727e-11,-0.00064928559194384,0.00064928549703366,-0.00069314726331374,0.00069314706849045,-0.00069314723243153,0.00069314703756214,-0.00064928581419261,0.00064928547233033,-0.00064928571594812,0.00064928537407617,-0.00069314738714467,0.00069314694419375,-0.00069314735610311,0.00069314691310598,-0.0010259414733117,0.00102594080603,-0.0010259414315537,0.0010259408473332,-0.0010259414887544,0.0010259408214694,-0.0010259414474329,0.0010259408632076,-0.00095184983808055,0.00095184941242775,-0.00095184997070092,0.00095184954504401,-0.00095185001301405,0.00095184950469043,-0.00095184987914898,0.00095184937082734,-0.00064928569105077,0.00064928559615469,0.72451637575547,123866,2964,0.0037399277645589,0.0058645227642906,0.0034141397945668,22.212867181271,9.2902937450166e-05,9.2902937450166e-05,9.2902937450166e-05,4277816.9582662,0.013104361642959
27891759,0.83639833681061,0.013723371934868,0.0041196027745001,0.0056976639838554,0.0039061051765124,-0.00092213534390202,0.00092213538603894,-9.4542518114498e-11,-9.4545441995763e-11,-3.5441001162036e-11,1.1930467685343e-10,-0.00038093857785319,0.00038093916517032,-0.00056025687316176,0.00056025817503493,-0.00056025701646354,0.00056025831839529,-0.0003809389669566,0.00038093924071543,-0.00038093873428047,0.00038093900809218,-0.00056025702758373,0.00056025801900946,-0.00056025717121102,0.00056025816269571,-0.0011697799196526,0.0011697794717327,-0.0011697800084422,0.0011697795605266,-0.001169779868349,0.0011697795244842,-0.0011697799571078,0.0011697796132482,-0.0010684111137106,0.0010684108872011,-0.0010684110998619,0.0010684108733617,-0.0010684111656828,0.0010684108349133,-0.0010684111516771,0.001068410820913,-0.00038093881064018,0.00038093939791191,1.2088342003567e-11,-1.4132560392885e-10,-2.6352296462785e-12,-1.2562739815819e-10,-0.0014565639803731,0.0014565638528982,-0.001354782369987,0.0013547821710105,-0.0014612919612073,0.0014612920229965,-0.0014612916156264,0.0014612913767079,-0.0014542149486509,0.0014542149142714,-0.0014542152446566,0.0014542151285443,-0.0014542150800256,0.0014542149436364,-0.001454215376063,0.0014542151579456,-0.0013547822323557,0.0013547821753724,-0.0013547824469456,0.001354782146649,-0.0014612920560683,0.0014612920369766,-0.0014612917104726,0.0014612913906757,-0.0013547821554404,0.001354782199784,-1.6102581029409e-10,-1.610288602965e-10,-0.00083838417711696,0.00083838376075293,-1.7999592708622e-10,-5.7870599019395e-11,-0.00066060857148613,0.00066060858669436,-0.00070596322838945,0.00070596323166278,-0.00070596322801977,0.00070596323125102,-0.00066060878291186,0.00066060854971997,-0.00066060869595749,0.00066060846275672,-0.00070596335228895,0.00070596310747845,-0.00070596335159202,0.0007059631067274,-0.0010518417909784,0.0010518411818563,-0.0010518417495967,0.0010518412229022,-0.0010518417986578,0.0010518411895351,-0.0010518417575977,0.0010518412308994,-0.00097590318685622,0.00097590280526133,-0.00097590331714573,0.00097590293554928,-0.00097590335926904,0.00097590289507534,-0.00097590322802992,0.0009759027638392,-0.0006606086587927,0.00066060867401398,0.76282598426134,123866,2964,0.0038370440771201,0.0060491340422564,0.003488440364969,22.881090755188,9.8248726041508e-05,9.8248726041508e-05,9.8248726041508e-05,4248135.6950885,0.01346516735434
28391759,0.85593889063697,0.014098569342547,0.0042286387963088,0.0058677239323102,0.0040022066139282,-0.00094370431218879,0.00094370439559477,-8.644017195914e-11,-8.6443117075052e-11,-1.9722526902106e-11,1.2967414476448e-10,-0.00037681235077199,0.00037681297970164,-0.00056474166310846,0.00056474305075825,-0.00056474179039172,0.00056474317810121,-0.00037681273888796,0.0003768130639134,-0.00037681250246706,0.00037681282754006,-0.00056474181238605,0.00056474289983618,-0.00056474194006283,0.00056474302757585,-0.0012020310074942,0.0012020305782728,-0.0012020310905132,0.0012020306612963,-0.0012020309580018,0.0012020306292114,-0.0012020310409473,0.0012020307121626,-0.0010974148465123,0.0010974146302454,-0.0010974148333908,0.0010974146171314,-0.00109741489671,0.0010974145796384,-0.0010974148835404,0.0010974145664766,-0.00037681258745095,0.00037681321634061,1.0505456712568e-11,-1.3791041915563e-10,-4.1022186873879e-12,-1.2237178509196e-10,-0.0015040142471092,0.0015040141214167,-0.0014001868867612,0.0014001866924217,-0.0015122470788278,0.0015122471359243,-0.0015122467060912,0.0015122464722363,-0.0014981785861268,0.0014981785498545,-0.0014981788865651,0.00149817877215,-0.0014981787248199,0.0014981785902786,-0.0014981790252912,0.0014981788126099,-0.0014001867678867,0.001400186709831,-0.0014001869705337,0.0014001866782845,-0.0015122471764226,0.0015122471558714,-0.0015122468036708,0.00151224649217,-0.0014001866841555,0.0014001867240107,-1.5046126886078e-10,-1.5046428759577e-10,-0.00085314224504213,0.00085314189021684,-1.6373197696814e-10,-4.6686254524324e-11,-0.00066457046286699,0.0006645705143052,-0.00071273363057203,0.00071273371516938,-0.00071273364217786,0.00071273372672923,-0.00066457067587028,0.00066457048790978,-0.00066457058272499,0.00066457039474975,-0.00071273374970569,0.00071273359582256,-0.00071273376090829,0.00071273360697644,-0.0010771727021005,0.0010771721221486,-0.0010771726625021,0.0010771721614627,-0.0010771727069575,0.0010771721270025,-0.0010771726676317,0.0010771721665881,-0.00099860772769067,0.00099860736330473,-0.00099860785613458,0.00099860749174437,-0.00099860789654187,0.0009986074528418,-0.00099860776727473,0.00099860732357757,-0.00066457055616398,0.00066457060762303,0.82233028262121,123866,2964,0.0039267891279243,0.0062455051722445,0.0035498551756055,23.414457627416,0.00010251566101933,0.00010251566101933,0.00010251566101933,4105189.2928841,0.013817515716344
28891759,0.8739193341036,0.014435257547878,0.0043276265524508,0.0060187362028552,0.004088894792572,-0.00096230798365385,0.00096230806957849,-8.6315374242213e-11,-8.6318328828423e-11,-1.7257571190105e-11,1.2775390988957e-10,-0.00037011474434324,0.0003701153620363,-0.00056630944414499,0.00056631083392741,-0.00056630957178832,0.00056631096163231,-0.00037011512545971,0.00037011544793856,-0.00037011489169029,0.00037011521422053,-0.00056630958912241,0.00056631068733898,-0.00056630971715705,0.00056631081543718,-0.0012313501049141,0.0012313496800924,-0.0012313501901785,0.0012313497653622,-0.0012313500568275,0.0012313497295791,-0.0012313501420246,0.0012313498147826,-0.001122754285286,0.0011227540688478,-0.0011227542762332,0.0011227540598008,-0.0011227543340426,0.001122754019708,-0.001122754324929,0.001122754010601,-0.00037011497833027,0.00037011559598438,9.1391530404421e-12,-1.3488952257797e-10,-5.7849480127798e-12,-1.1907230753855e-10,-0.0015473863194977,0.0015473861954188,-0.0014411574569116,0.0014411572676043,-0.0015587581403484,0.001558758193078,-0.0015587577613513,0.0015587575318066,-0.0015383847398814,0.0015383847020814,-0.0015383850490786,0.0015383849364741,-0.0015383848837144,0.0015383847505771,-0.0015383851929457,0.0015383849850036,-0.0014411573381984,0.0014411572783316,-0.0014411575404855,0.0014411572561926,-0.0015587582389653,0.0015587582173654,-0.0015587578599529,0.0015587575560802,-0.001441157254665,0.0014411572897863,-1.5084238603777e-10,-1.5084540786457e-10,-0.00086460359558303,0.00086460323986401,-1.6253102118593e-10,-5.0478866331754e-11,-0.00066416698782769,0.00066416702938269,-0.00071565571551835,0.00071565579797709,-0.00071565572600435,0.00071565580841817,-0.00066416720723806,0.00066416701916558,-0.00066416710278775,0.0006641669147052,-0.00071565582976325,0.00071565568351818,-0.00071565583984694,0.00071565569355594,-0.0010994865456641,0.0010994859708603,-0.0010994865077243,0.0010994860085173,-0.0010994865513659,0.0010994859765577,-0.001099486513699,0.0010994860144871,-0.0010177236429347,0.0010177232778856,-0.0010177237702208,0.0010177234051653,-0.0010177238089592,0.001017723367915,-0.0010177236808515,0.0010177232398105,-0.0006641670924367,0.00066416713400931,0.79975737494462,123866,2964,0.0040042269941995,0.0064249556493678,0.003597589547778,23.939372311615,0.00010671497849292,0.00010671497849292,0.00010671497849292,3941185.8571713,0.014126477068101
29391759,0.89057250113715,0.014695349673442,0.0044059172183979,0.006132744257623,0.004156688197421,-0.00097812588990961,0.00097812588896188,-1.0254932010043e-10,-1.0255225118736e-10,-5.0096734748259e-11,1.0293994188779e-10,-0.00037159787783062,0.00037159837103636,-0.00057186121639325,0.00057186241618211,-0.00057186138613962,0.00057186258599032,-0.0003715982522077,0.00037159843657611,-0.00037159803178334,0.00037159821620295,-0.00057186136895339,0.00057186226206309,-0.00057186153894384,0.0005718624321173,-0.0012548543550524,0.0012548539015959,-0.0012548544638026,0.0012548540103514,-0.0012548543041789,0.001254853953857,-0.0012548544129663,0.0012548540626515,-0.0011414076052208,0.0011414073732261,-0.0011414076056991,0.0011414073737107,-0.0011414076566579,0.0011414073216525,-0.0011414076568051,0.0011414073218058,-0.00037159809810881,0.0003715985912707,1.1373148911049e-11,-1.3976616766415e-10,-3.4293708416925e-12,-1.2396577183609e-10,-0.0015785251404077,0.001578525013783,-0.0014669730433297,0.0014669728470271,-0.0015883447591467,0.0015883448186103,-0.0015883444352312,0.0015883441987449,-0.0015713475173329,0.0015713474826281,-0.0015713478581423,0.0015713477429258,-0.0015713476688759,0.001571347533321,-0.0015713480097177,0.0015713477936513,-0.0014669728611967,0.0014669728032655,-0.0014669731132147,0.0014669728170081,-0.001588344859056,0.0015883448391696,-0.001588344535124,0.0015883442192899,-0.0014669727913498,0.001466972833326,-1.7442974733139e-10,-1.74432811315e-10,-0.00087540537420522,0.00087540486491961,-2.0304898266943e-10,-8.293921560213e-11,-0.00066914447242806,0.00066914440707777,-0.00072226934947959,0.00072226923215628,-0.00072226932577573,0.00072226920840677,-0.00066914472186954,0.00066914441328186,-0.00066914459445429,0.00066914428585427,-0.0007222694711374,0.00072226911011905,-0.00072226944719805,0.00072226908613103,-0.0011170273120383,0.0011170266830596,-0.0011170272712116,0.0011170267235028,-0.0011170273278139,0.0011170266988315,-0.0011170272873659,0.0011170267396521,-0.0010327785119851,0.0010327781152744,-0.0010327786415062,0.0010327782447915,-0.0010327786829798,0.0010327782051007,-0.0010327785523513,0.0010327780744746,-0.00066914460050616,0.00066914453517385,0.66449988364994,123866,2964,0.0040699996294929,0.0065537462382967,0.0036425322951157,24.733628352824,0.00011306902682259,0.00011306902682259,0.00011306902682259,3898464.3871619,0.014369438179649
29891759,0.90575277674396,0.014939660073399,0.0044792812939743,0.0062394953741417,0.0042208834052832,-0.00099527720041944,0.00099527723511929,-9.4638196573939e-11,-9.4641151689545e-11,-3.8502229158328e-11,1.158948910274e-10,-0.00038620590900588,0.00038620645882722,-0.00058656756923621,0.00058656885075315,-0.00058656772741192,0.00058656900899029,-0.00038620628910389,0.00038620652654636,-0.00038620606479088,0.00038620630228423,-0.00058656772320839,0.00058656869511329,-0.0005865678816862,0.00058656885365453,-0.0012754034944951,0.0012754030537982,-0.0012754035986816,0.0012754031579901,-0.0012754034432809,0.0012754031064866,-0.0012754035474651,0.0012754032106771,-0.0011591967752921,0.0011591965546484,-0.0011591967757284,0.0011591965550915,-0.0011591968271635,0.0011591965025228,-0.0011591968273758,0.001159196502742,-0.00038620613332331,0.00038620668310314,1.1340321443317e-11,-1.4141466611615e-10,-3.1862072481145e-12,-1.2585021285595e-10,-0.0016024168365501,0.0016024167082791,-0.0014844236258776,0.0014844234262893,-0.0016075277743318,0.0016075278344151,-0.0016075274325005,0.001607527193359,-0.0016004942969257,0.0016004942614369,-0.0016004946433912,0.0016004945263742,-0.0016004944551149,0.0016004943181029,-0.0016004948016125,0.0016004945830726,-0.0014844234672003,0.0014844234092796,-0.0014844237035246,0.0014844234030277,-0.0016075278772535,0.0016075278566536,-0.0016075275354058,0.0016075272155825,-0.0014844233895923,0.001484423432583,-1.6403498160126e-10,-1.6403806839667e-10,-0.00089034227253582,0.0008903418197915,-1.8822028024964e-10,-6.6284122668493e-11,-0.00068743205907078,0.00068743204548867,-0.00073921306175548,0.00073921303277505,-0.0007392130484101,0.00073921301938494,-0.00068743230440204,0.00068743204311611,-0.00068743218326606,0.00068743192196858,-0.00073921318537934,0.0007392129088142,-0.00073921317175807,0.0007392128951462,-0.001133022895132,0.0011330222869421,-0.0011330228537817,0.0011330223279489,-0.0011330229084434,0.00113302230025,-0.0011330228674358,0.0011330223415987,-0.0010493609610714,0.0010493605821041,-0.0010493610896772,0.001049360710706,-0.001049361131752,0.0010493606703168,-0.0010493610021351,0.0010493605407022,-0.00068743218072706,0.00068743216716213,0.68461390406998,123866,2964,0.0041411888590384,0.0066525305809954,0.0037045657539119,25.429627984442,0.00011863702387554,0.00011863702387554,0.00011863702387554,4031223.8706079,0.0146047960974
30391759,0.91941974412562,0.015129338101599,0.0045364207662826,0.0063222080516048,0.004270709283712,-0.0010057352100995,0.0010057352611438,-9.1084257261993e-11,-9.1087218465648e-11,-3.2797810145002e-11,1.2099964333807e-10,-0.00037640809841087,0.00037640866343638,-0.00058358002963489,0.0005835813447115,-0.00058358018096015,0.00058358149609757,-0.00037640848061005,0.00037640873411083,-0.00037640825380612,0.00037640850735674,-0.00058358018305308,0.0005835811896065,-0.00058358033470687,0.00058358134132434,-0.0012940759126952,0.0012940754807579,-0.0012940760151089,0.0012940755831769,-0.0012940758616986,0.0012940755332374,-0.0012940759640921,0.0012940756356381,-0.0011735367700802,0.0011735365554673,-0.0011735367712954,0.0011735365566894,-0.0011735368217511,0.0011735365034961,-0.001173536822794,0.0011735365045454,-0.00037640832527662,0.00037640889025944,1.1439535882972e-11,-1.4083918786941e-10,-3.0527497479436e-12,-1.2531804174485e-10,-0.0016291479984234,0.0016291478708163,-0.0015099862788998,0.0015099860801642,-0.0016383290214416,0.0016383290815808,-0.0016383286729516,0.0016383284347883,-0.0016243376364779,0.0016243376011541,-0.0016243379871415,0.0016243378707757,-0.0016243377991504,0.0016243376628114,-0.0016243381498455,0.0016243379324646,-0.0015099861206399,0.0015099860631915,-0.001509986359765,0.0015099860604739,-0.0016383291270337,0.0016383291067944,-0.0016383287785262,0.0016383284599864,-0.001509986039813,0.001509986082923,-1.5946080920674e-10,-1.5946388095849e-10,-0.00089556436634157,0.00089556393755902,-1.8306059822732e-10,-6.1672587988888e-11,-0.00068154785134891,0.00068154785101813,-0.00073633957522021,0.00073633957631179,-0.00073633956641567,0.00073633956746274,-0.00068154809982217,0.00068154785244907,-0.00068154797516607,0.00068154772778177,-0.00073633969838847,0.00073633945283217,-0.00073633968928257,0.00073633944367973,-0.0011467688118768,0.0011467682173253,-0.0011467687707465,0.0011467682581286,-0.0011467688243382,0.0011467682297833,-0.001146768783534,0.0011467682709124,-0.0010592614596162,0.0010592610896487,-0.0010592615874815,0.0010592612175099,-0.0010592616293733,0.0010592611772525,-0.0010592615005412,0.0010592610484241,-0.00068154797644746,0.00068154797613358,0.59098872163378,123866,2964,0.0041847733370435,0.0067631112058931,0.0037263643029182,26.075243291526,0.00012380194633221,0.00012380194633221,0.00012380194633221,3866903.2277892,0.014783423692787
30891759,0.93183168988437,0.015329813566864,0.0045963910155093,0.0064097885972901,0.0043236339540645,-0.0010199724438518,0.00101997237668,-1.1453834904971e-10,-1.1454133587023e-10,-7.7981973395418e-11,9.0356099190546e-11,-0.00038641025424617,0.00038641066711281,-0.00059458100582705,0.00059458208076244,-0.00059458121212258,0.00059458228711955,-0.0003864106338614,0.0003864107092776,-0.00038641042232131,0.00038641049778865,-0.00059458117316009,0.00059458191176028,-0.00059458137960297,0.00059458211826625,-0.0013115757194798,0.0013115752407088,-0.0013115758526657,0.0013115753738998,-0.0013115756635243,0.0013115752981696,-0.0013115757968229,0.0013115754314745,-0.001189239645642,0.0011892394058177,-0.0011892396571724,0.001189239417355,-0.0011892397021516,0.0011892393493148,-0.0011892397131575,0.0011892393603276,-0.00038641046537165,0.00038641087819636,1.5144137180534e-11,-1.5042370829316e-10,1.6016069212726e-12,-1.3567393344932e-10,-0.0016507047992113,0.0016507046658921,-0.0015275615885804,0.0015275613742025,-0.0016573002919273,0.0016573003642208,-0.0016573000101238,0.0016572997583521,-0.0016486293556937,0.0016486293251994,-0.0016486297493297,0.0016486296266602,-0.0016486295286083,0.001648629387256,-0.0016486299222762,0.0016486296887489,-0.0015275613567016,0.0015275613035248,-0.0015275616532141,0.0015275613292151,-0.0016573004011965,0.0016573003829031,-0.0016573001193767,0.0016572997770191,-0.0015275612921057,0.0015275613485527,-1.913957608953e-10,-1.9139884089679e-10,-0.00090740628556061,0.00090740565396742,-2.3708107574764e-10,-9.9583396839701e-11,-0.00069453104182203,0.0006945309154807,-0.0007487215797064,0.00074872133471813,-0.00074872152681117,0.00074872128177786,-0.00069453133034474,0.00069453092809308,-0.00069453118043521,0.00069453077817218,-0.00074872171808428,0.00074872119581303,-0.00074872166510779,0.00074872114278962,-0.0011603947974046,0.0011603941188852,-0.0011603947506396,0.001160394165189,-0.0011603948230519,0.0011603941445291,-0.0011603947767514,0.0011603941912965,-0.0010733880034031,0.0010733875888425,-0.0010733881344715,0.0010733877199069,-0.001073388181802,0.0010733876746172,-0.001073388049385,0.0010733875422028,-0.00069453119285552,0.00069453106653143,0.68714590328657,123866,2964,0.0042438868656428,0.0068522264030568,0.0037755543392728,27.063720752649,0.00013170976602119,0.00013170976602119,0.00013170976602119,3922642.5369608,0.014983783126319
31391759,0.94313275535863,0.015519863353394,0.0046528433655479,0.0064934595970329,0.0043735603908136,-0.0010303643463621,0.0010303641732914,-1.3164806983007e-10,-1.3165104397451e-10,-1.2650731292813e-10,6.6223556621685e-11,-0.00036971735531179,0.00036971761286012,-0.00058749322236262,0.00058749406000743,-0.00058749347890356,0.00058749431661181,-0.00036971775493924,0.0003697176293197,-0.00036971754604642,0.00036971742047925,-0.00058749341320867,0.00058749386736569,-0.00058749366979507,0.00058749412401746,-0.0013316410198725,0.0013316405087651,-0.0013316411822703,0.001331640671168,-0.001331640955827,0.0013316405744557,-0.0013316411184325,0.0013316407370671,-0.0012060989916188,0.0012060987468287,-0.0012060990081353,0.0012060987633517,-0.0012060990562214,0.0012060986824206,-0.0012060990719591,0.0012060986981654,-0.00036971756348182,0.00036971782098908,2.350531751692e-11,-1.6535436155982e-10,1.2409170856878e-11,-1.5277998255508e-10,-0.0016827907353568,0.0016827905957183,-0.0015620425980251,0.0015620423581018,-0.001697409003101,0.0016974091010255,-0.0016974088178306,0.0016974085462358,-0.0016731295984301,0.0016731295794832,-0.0016731300375614,0.0016731299070091,-0.001673129786051,0.0016731296400689,-0.0016731302252136,0.0016731299676264,-0.0015620422482884,0.001562042208103,-0.0015620426490428,0.0015620422838173,-0.0016974091207518,0.0016974091093381,-0.0016974089354642,0.0016974085545292,-0.0015620421973079,0.0015620422824275,-2.1832365435855e-10,-2.1832672394492e-10,-0.00091073292218303,0.00091073209015831,-3.0178645660149e-10,-1.3544998389009e-10,-0.00068139023199786,0.00068138997439462,-0.00073998920269969,0.00073998868938519,-0.00073998910791019,0.00073998859454984,-0.00068139057810744,0.00068138999044708,-0.00068139039793441,0.00068138981026354,-0.00073998936880337,0.00073998852262441,-0.00073998927407854,0.00073998842785356,-0.0011752916561698,0.0011752909098114,-0.0011752915995866,0.001175290965818,-0.001175291693245,0.0011752909468828,-0.001175291637238,0.0011752910034656,-0.001084071219473,0.0010840707814692,-0.0010840713578553,0.0010840709198487,-0.0010840714148821,0.0010840708652026,-0.0010840712748467,0.0010840707251672,-0.0006813904137602,0.00068139015617576,0.71628541114011,123866,2964,0.0042872800153955,0.0069849421951665,0.0037895371595954,28.357122974295,0.00014205698379436,0.00014205698379436,0.00014205698379436,3623427.5798458,0.015176860901691
31891759,0.95306224840054,0.015690082984458,0.0047042494197674,0.0065669089735847,0.0044189245911059,-0.0010398942841463,0.0010398942484794,-1.0216402572385e-10,-1.0216701339728e-10,-8.0352710743078e-11,1.1230699872328e-10,-0.00036532067464689,0.00036532113248419,-0.00058759999549238,0.00058760113291553,-0.00058760019373251,0.0005876013312169,-0.00036532109358112,0.00036532116493314,-0.00036532086732496,0.00036532093872965,-0.0005876001866359,0.0005876009397329,-0.00058760038513889,0.00058760113829993,-0.0013473916337434,0.001347391174589,-0.001347391766639,0.0013473913074898,-0.0013473915700768,0.0013473912401096,-0.0013473917030107,0.0013473913730498,-0.0012193251144751,0.0012193249092712,-0.0012193251233086,0.0012193249181114,-0.0012193251789939,0.0012193248444773,-0.0012193251875102,0.001219324853,-0.00036532090075277,0.0003653213585463,2.4023345162119e-11,-1.6599520575085e-10,1.4851582448763e-11,-1.5531608160289e-10,-0.0017064064128717,0.001706406273132,-0.0015843328576219,0.0015843326127026,-0.0017223636726555,0.0017223637733184,-0.0017223634213148,0.0017223631497241,-0.001694984061805,0.0016949840432763,-0.0016949844827937,0.0016949843509661,-0.0016949842565919,0.001694984111697,-0.0016949846776118,0.0016949844194178,-0.0015843325766041,0.0015843325412306,-0.0015843329356216,0.001584332564903,-0.0017223637974166,0.0017223637857511,-0.0017223635460582,0.0017223631621415,-0.0015843324986406,0.0015843325890697,-1.7905121552371e-10,-1.7905427389719e-10,-0.0009152152387741,0.00091521463442774,-2.4856203397548e-10,-7.8552717077238e-11,-0.00067847975795649,0.00067847967633762,-0.0007391023195161,0.00073910211821509,-0.00073910227180712,0.00073910207046048,-0.00067848008221472,0.00067847965963364,-0.00067847992900814,0.00067847950641563,-0.00073910248995658,0.00073910194732184,-0.00073910244211522,0.00073910189943304,-0.0011864400760871,0.001186439419953,-0.0011864400186263,0.0011864394769839,-0.0011864400996072,0.0011864394434698,-0.0011864400425761,0.0011864395009296,-0.0010935736527251,0.0010935732794327,-0.0010935737878602,0.0010935734145634,-0.0010935738460855,0.0010935733583016,-0.0010935737097111,0.0010935732219302,-0.00067847991207984,0.00067847983048043,0.72644232686627,123866,2964,0.0043269698945757,0.0070825574527871,0.0038082538585764,29.265819832319,0.00014932655865855,0.00014932655865855,0.00014932655865855,3482700.3148679,0.015335322355346
32391759,0.96131642690368,0.015844700112832,0.0047510800960548,0.0066331396374408,0.0044604803793368,-0.0010471292341285,0.0010471294855129,-6.1218970155425e-11,-6.1222314317969e-11,4.0404788345275e-11,1.5068518197995e-10,-0.00036276891970338,0.0003627697226075,-0.00058812922369719,0.00058813092550279,-0.00058812932005723,0.0005881310219094,-0.00036276928280522,0.000362769856947,-0.00036276903408393,0.00036276960823652,-0.00058812933490878,0.00058813081277088,-0.00058812943183257,0.00058813090975894,-0.001358929364994,0.0013589290411735,-0.0013589294575659,0.0013589291337428,-0.0013589293282103,0.0013589290790353,-0.0013589294207256,0.0013589291715616,-0.0012296187028874,0.0012296185275261,-0.0012296187330714,0.0012296185577124,-0.0012296187402558,0.0012296184898583,-0.0012296187704105,0.0012296185200035,-0.00036276916888581,0.00036276997174429,-2.1607832836716e-12,-1.1319197328902e-10,-1.4913416850205e-11,-9.9898812083577e-11,-0.0017243326713166,0.0017243325572936,-0.001601289580108,0.001601289417471,-0.0017411761923634,0.0017411762134124,-0.0017411757145204,0.001741175518247,-0.0017121888671083,0.0017121888187204,-0.0017121892168742,0.0017121891127357,-0.0017121890365589,0.0017121889149186,-0.0017121893863384,0.0017121892089579,-0.0016012895182628,0.0016012894517406,-0.001601289680451,0.0016012894448296,-0.0017411763025799,0.0017411762681536,-0.0017411758247199,0.0017411755729735,-0.0016012894179487,0.0016012894244211,-1.2267864073703e-10,-1.2268141699045e-10,-0.00091867114383094,0.00091867103930418,-1.1026129197557e-10,-2.8694139619613e-11,-0.00067735639171578,0.00067735659545742,-0.00073907455147353,0.00073907496275234,-0.00073907459381675,0.00073907500504056,-0.00067735658215497,0.00067735661320015,-0.0006773564780085,0.00067735650898805,-0.00073907463633708,0.00073907487782706,-0.00073907467809735,0.00073907491951561,-0.0011943640265356,0.0011943636048972,-0.0011943639988748,0.0011943636323303,-0.0011943640364564,0.0011943636148206,-0.001194364009033,0.0011943636424809,-0.0011009132337551,0.0011009129402114,-0.0011009133341181,0.0011009130405646,-0.0011009133627362,0.0011009130132011,-0.0011009132616811,0.001100912912153,-0.00067735649576671,0.00067735669950491,0.79219730183482,123866,2964,0.0043570911577294,0.0071566293806274,0.0038226742692742,29.297792606101,0.00014958234084881,0.00014958234084881,0.00014958234084881,3366721.0470993,0.015455805247543
32891759,0.96811154924072,0.015952464398199,0.0047842081240294,0.0066785833875745,0.0044896728865947,-0.0010507733894172,0.001050773705922,-4.3192051659529e-11,-4.3195382410718e-11,8.6133887735031e-11,1.7370054584697e-10,-0.00035078259826254,0.00035078348472418,-0.00058148174231822,0.00058148361511775,-0.00058148177390848,0.00058148364676928,-0.00035078293510617,0.00035078363478015,-0.00035078269185617,0.00035078339158018,-0.00058148183168994,0.00058148352437151,-0.00058148186390663,0.00058148355665093,-0.0013690142523597,0.0013690139301481,-0.0013690142961129,0.0013690139739056,-0.0013690142232539,0.0013690139603195,-0.0013690142667396,0.0013690140038107,-0.0012364972089713,0.0012364970287353,-0.0012364972083221,0.0012364970280922,-0.0012364972386851,0.0012364969982213,-0.0012364972385663,0.0012364969981082,-0.00035078284235754,0.00035078372877578,-9.5478582606605e-12,-9.8429350530685e-11,-2.7382678007395e-11,-8.0298154633076e-11,-0.0017414141936503,0.0017414140867647,-0.0016177449075583,0.0016177447755102,-0.0017612656055102,0.0017612656014455,-0.001761265049338,0.0017612648710214,-0.0017259535128043,0.0017259534514285,-0.0017259538090516,0.0017259537154812,-0.0017259536753188,0.0017259535572797,-0.0017259539715963,0.0017259538213631,-0.0016177449525682,0.0016177448696604,-0.001617745025337,0.0016177448354282,-0.0017612657028075,0.0017612656649985,-0.0017612651466188,0.0017612649345585,-0.0016177448348241,0.0016177448097809,-9.3108762370634e-11,-9.3111484919815e-11,-0.00091712121772356,0.00091712124872354,-4.3374541364005e-11,6.1577017246744e-12,-0.00066630325294884,0.000666303515597,-0.0007304503719043,0.00073045095891594,-0.0007304504593326,0.00073045104629881,-0.0006663033977908,0.00066630354799845,-0.00066630330870907,0.00066630345890099,-0.00073045042598952,0.00073045090492097,-0.00073045051269147,0.00073045099157433,-0.0012002254685503,0.001200225068563,-0.0012002254519278,0.0012002250851701,-0.0012002254560497,0.0012002250560599,-0.0012002254394467,0.0012002250726856,-0.0011041383464177,0.0011041380547531,-0.001104138459872,0.0011041381682026,-0.0011041384776147,0.0011041381511381,-0.0011041383640155,0.0011041380375418,-0.00066630334116957,0.0006663036038359,0.66888370250489,123866,2964,0.0043723846796435,0.0072272482335441,0.0038163716242011,29.182801183722,0.00014866240946978,0.00014866240946978,0.00014866240946978,3217142.3727324,0.015536724592139
33391759,0.97375936936338,0.016055376118778,0.0048158433186566,0.0067216795794994,0.0045178532206219,-0.0010577298855948,0.0010577301445167,-5.2583977713223e-11,-5.2587335963572e-11,7.5470193562392e-11,1.6242841834243e-10,-0.00036135193959636,0.00036135274171408,-0.00058920415401306,0.00058920591572059,-0.00058920418465858,0.0005892059464277,-0.00036135227807681,0.00036135289579196,-0.00036135203201731,0.00036135264978277,-0.00058920424260343,0.00058920582575646,-0.00058920427390096,0.00058920585711724,-0.001375658901434,0.0013756585552191,-0.0013756589447249,0.0013756585985146,-0.0013756588724772,0.0013756585852071,-0.0013756589154987,0.0013756586282344,-0.0012433963648956,0.0012433961612374,-0.0012433963647313,0.0012433961610792,-0.0012433963943329,0.0012433961310197,-0.0012433963946852,0.0012433961313779,-0.00036135218652617,0.00036135298860078,-9.5645684560579e-12,-9.6597012055162e-11,-2.7886738630748e-11,-7.801317390458e-11,-0.0017469156204649,0.0017469155153601,-0.001621872988798,0.0016218728606605,-0.0017644827735959,0.001764482768609,-0.0017644822168478,0.0017644820412451,-0.0017338642787199,0.0017338642175669,-0.0017338645702559,0.0017338644787628,-0.0017338644385638,0.0017338643219795,-0.0017338647301298,0.001733864583206,-0.0016218730396263,0.0016218729563571,-0.001621873105507,0.0016218729207279,-0.0017644828683093,0.0017644828314079,-0.0017644823115441,0.0017644821040279,-0.0016218729229521,0.001621872896328,-1.0690555588439e-10,-1.0690829567201e-10,-0.00092425583838302,0.00092425576592286,-5.8083906311827e-11,-9.8400858038979e-12,-0.00067761622113007,0.00067761639665581,-0.00073917370370193,0.00073917415030014,-0.00073917379302897,0.00073917423958151,-0.00067761636066507,0.00067761642773623,-0.00067761627486922,0.00067761634192548,-0.00073917375629899,0.00073917409782633,-0.00073917384486658,0.00073917418634567,-0.0012057890607004,0.0012057886195951,-0.0012057890444742,0.0012057886358147,-0.0012057890479234,0.0012057886068153,-0.0012057890317076,0.0012057886230443,-0.0011111926254214,0.0011111922960853,-0.0011111927386505,0.0011111924093095,-0.0011111927558523,0.0011111923927634,-0.0011111926424901,0.0011111922794045,-0.00067761630601741,0.00067761648156142,0.76703045550567,123866,2964,0.0044012002096187,0.0072499600163956,0.0038459640031669,29.274746270159,0.00014939797016127,0.00014939797016127,0.00014939797016127,3341143.3846433,0.015619072070254
33891759,0.97859449662694,0.016142689980571,0.004842497767665,0.0067585914425505,0.0045416007703559,-0.0010619205134224,0.0010619205122987,-1.0356339009187e-10,-1.0356672666642e-10,-2.8297889188027e-11,7.7390244134106e-11,-0.00034938630478978,0.0003493867419046,-0.00058415396384599,0.00058415513677395,-0.00058415413228204,0.00058415530527164,-0.00034938665040588,0.00034938687305671,-0.000349386411601,0.00034938663430371,-0.00058415407001817,0.00058415502948871,-0.00058415423868469,0.00058415519821914,-0.001385764143913,0.0013857637117687,-0.0013857642664306,0.0013857638342908,-0.0013857641081991,0.0013857637483081,-0.0013857642308185,0.0013857638709334,-0.0012508729410833,0.0012508726921608,-0.0012508729582833,0.0012508727093668,-0.0012508729768966,0.0012508726565338,-0.0012508729936016,0.0012508726732452,-0.00034938654326522,0.00034938698033605,-4.4608715469657e-12,-1.0832161778459e-10,-2.4807409908009e-11,-8.7498090784748e-11,-0.0017649763402026,0.0017649762286845,-0.0016390974729879,0.0016390973327129,-0.001786338239988,0.0017863382489909,-0.0017863378644111,0.0017863376707588,-0.0017485439674267,0.0017485439130714,-0.0017485443503756,0.0017485442536546,-0.0017485441395507,0.0017485440154914,-0.0017485445225289,0.001748544356105,-0.0016390973142996,0.0016390972303952,-0.0016390975394544,0.001639097330755,-0.0017863383373448,0.0017863383054026,-0.0017863379617506,0.0017863377271534,-0.0016390972478679,0.0016390972323908,-1.8205262476287e-10,-1.8205535889258e-10,-0.00092334063541441,0.00092334009097268,-1.8991832625785e-10,-1.2743140989614e-10,-0.00066749263550766,0.00066749248366789,-0.00073247688488657,0.00073247668278374,-0.00073247686422191,0.00073247666207365,-0.00066749283857853,0.00066749255767381,-0.00066749270032173,0.00066749241940219,-0.000732476949967,0.00073247661740509,-0.00073247692896637,0.00073247659635634,-0.001211764555226,0.0012117639436557,-0.0012117645335193,0.0012117639650276,-0.0012117645741495,0.0012117639625757,-0.001211764552781,0.0012117639842855,-0.001114966898614,0.0011149664748413,-0.0011149670251213,0.0011149666013433,-0.0011149670472361,0.0011149665808647,-0.0011149669196539,0.0011149664532861,-0.00066749277435714,0.00066749262253641,0.76172156471975,123866,2964,0.0044187655242565,0.0073246272277065,0.0038422857473423,30.026927241257,0.00015541541793006,0.00015541541793006,0.00015541541793006,3117615.1751911,0.015709103758546
34391759,0.98281353798771,0.016214960263598,0.0048648885173799,0.0067885646137497,0.0045615071324681,-0.0010678301395871,0.001067829914271,-1.421259082393e-10,-1.4212925737228e-10,-1.233885523806e-10,2.3779191510551e-11,-0.00035178247243872,0.00035178262073475,-0.00058741526064408,0.00058741595096468,-0.00058741553132187,0.00058741622170449,-0.00035178285976762,0.00035178271698278,-0.0003517826171051,0.00035178247437172,-0.0005874154067708,0.00058741580359715,-0.00058741567743395,0.00058741607432463,-0.0013938957837068,0.0013938952683742,-0.0013938959640679,0.0013938954487398,-0.0013938957341352,0.0013938953189607,-0.001393895914824,0.0013938954996554,-0.0012577426096904,0.0012577423337218,-0.0012577426293705,0.0012577423534078,-0.0012577426592777,0.0012577422848332,-0.0012577426778323,0.0012577423033935,-0.00035178271404852,0.00035178286230087,8.4993319983005e-12,-1.3441944481352e-10,-1.1039577138202e-11,-1.1393419492624e-10,-0.0017755025705304,0.0017755024463187,-0.0016478446656163,0.0016478444869856,-0.001795951621798,0.0017959516694889,-0.0017959514111499,0.0017959511800335,-0.0017597627839339,0.0017597627454211,-0.0017597632470528,0.0017597631371293,-0.0017597629750643,0.0017597628390595,-0.001759763438213,0.0017597632307978,-0.0016478443290911,0.0016478442582898,-0.0016478447006824,0.0016478444272443,-0.0017959517281067,0.0017959517076856,-0.0017959515174403,0.0017959512182138,-0.0016478442940595,0.0016478443180687,-2.4004707897284e-10,-2.4004982061335e-10,-0.00092709038164598,0.00092708942357936,-3.0895262151096e-10,-2.0404155737636e-10,-0.00066993082108605,0.00066993041593171,-0.00073529965044527,0.00073529890819613,-0.00073529954735335,0.00073529880505797,-0.00066993109484343,0.00066993048303544,-0.00066993092526929,0.00066993031344646,-0.00073529975597753,0.00073529880207206,-0.00073529965285549,0.0007352986989023,-0.001217510466133,0.00121750969254,-0.0012175104297953,0.001217509728311,-0.001217510506664,0.0012175097330677,-0.0012175104708975,0.001217509769409,-0.0011205494740189,0.0011205489811842,-0.0011205496182244,0.0011205491253844,-0.0011205496545904,0.0011205490913884,-0.0011205495086466,0.0011205489454485,-0.00066993099230647,0.00066993058717156,0.7195014834377,123866,2964,0.004443322073847,0.0073681079873662,0.0038578878494917,31.389189270321,0.00016631351416257,0.00016631351416257,0.00016631351416257,3069533.9123755,0.015794074906485
34891759,0.98654231397984,0.016282782459253,0.0048858702251502,0.0068166435027094,0.0045802687313939,-0.0010756883752364,0.0010756879012616,-1.8359946245657e-10,-1.8360282520678e-10,-2.4047120732115e-10,-1.7276129931972e-11,-0.00035945886233262,0.00035945872729873,-0.00059493122085829,0.00059493141047529,-0.00059493160757713,0.00059493179725609,-0.00035945932402582,0.0003594587532642,-0.00035945907877817,0.00035945850806811,-0.00059493144069169,0.00059493118891511,-0.00059493182715665,0.00059493157544424,-0.0014026068574037,0.001402606240293,-0.0014026071045183,0.0014026064874123,-0.0014026067828295,0.0014026063164803,-0.0014026070304894,0.0014026065641462,-0.001265844103655,0.001265843809633,-0.0012658441267806,0.0012658438327647,-0.0012658441784269,0.00126584373594,-0.0012658441998165,0.0012658437573355,-0.00035945910580382,0.00035945897072657,3.2093568269402e-11,-1.8391573543803e-10,1.9213159749688e-11,-1.6919436032126e-10,-0.0017851472353587,0.0017851470860903,-0.0016550954353451,0.0016550951730279,-0.0018040770836827,0.001804077205934,-0.0018040770778137,0.0018040767781879,-0.0017711416686932,0.0017711416600457,-0.0017711422408736,0.0017711421017462,-0.0017711418926466,0.0017711417361982,-0.0017711424648568,0.0017711421779287,-0.0016550948805425,0.0016550948435822,-0.0016550954451132,0.0016550950389349,-0.0018040772155233,0.001804077212412,-0.0018040772096363,0.0018040767846493,-0.0016550948708088,0.0016550949777126,-3.0048570401139e-10,-3.0048845301932e-10,-0.00093395466954957,0.00093395325631348,-4.5425787504991e-10,-2.6148051024402e-10,-0.00067850994268411,0.00067850931385899,-0.00074339378529485,0.00074339250330083,-0.00074339358795193,0.00074339230591167,-0.00067851033696636,0.00067850933448938,-0.0006785101311119,0.00067850912862027,-0.00074339397580078,0.00074339231182878,-0.00074339377882734,0.00074339211480737,-0.0012244068324118,0.0012244058646555,-0.0012244067662907,0.0012244059299298,-0.0012244068982129,0.0012244059304537,-0.0012244068329481,0.0012244059965833,-0.0011280979471485,0.0011280973967008,-0.0011280981103971,0.0011280975599441,-0.0011280981762924,0.0011280974973467,-0.0011280980105145,0.0011280973315723,-0.00067851015147734,0.00067850952267155,0.76368749739882,123866,2964,0.0044759188457021,0.0074079546533031,0.0038863842141062,33.428026022475,0.0001826242081798,0.0001826242081798,0.0001826242081798,3073084.1057178,0.0158966088004
35391759,0.98979467492831,0.016335457968729,0.0049022545176935,0.0068383394628894,0.0045948639881456,-0.0010824568095501,0.0010824562049538,-2.006459773443e-10,-2.0064931780107e-10,-3.1312911156911e-10,-2.9406579759468e-11,-0.0003571534475522,0.00035715316043972,-0.00059589558327709,0.0005958954942914,-0.00059589603364842,0.00059589594472423,-0.00035715398157433,0.00035715314200803,-0.00035715372212854,0.00035715288261427,-0.00059589586188619,0.00059589521347151,-0.0005958963119527,0.00059589566360231,-0.001412474687236,0.0014124740246128,-0.0014124749729848,0.0014124743103664,-0.0014124745929333,0.0014124741210776,-0.0014124748793111,0.0014124744074617,-0.001274334156778,0.001274333873298,-0.0012743341815013,0.0012743338980273,-0.0012743342515792,0.0012743337796428,-0.0012743342743223,0.0012743338023922,-0.00035715370500388,0.00035715341784828,5.2135702819478e-11,-2.2277999203115e-10,4.8666507315725e-11,-2.1678067033388e-10,-0.0017986312193569,0.0017986310519142,-0.0016698989563778,0.0016698986205173,-0.001820495905237,0.0018204960923646,-0.0018204960487186,0.0018204956984684,-0.0017818107349938,0.0017818107543388,-0.0017818113764925,0.0017818112131702,-0.0017818109824246,0.0017818108141582,-0.001781811623953,0.00178181127302,-0.0016698982301376,0.0016698982305792,-0.0016698989581159,0.0016698984389966,-0.0018204960612032,0.0018204960715689,-0.0018204962046662,0.0018204956776568,-0.0016698982284337,0.0016698984121372,-3.2935169851698e-10,-3.2935446182962e-10,-0.00093781573766978,0.0009378140637441,-5.5315746830875e-10,-2.8213947997226e-10,-0.00067585830331964,0.00067585755970242,-0.00074218819476572,0.00074218659302491,-0.00074218794734048,0.00074218634555331,-0.00067585879230025,0.00067585752424608,-0.00067585856748477,0.00067585729941636,-0.00074218846131455,0.00074218632535784,-0.00074218821443388,0.00074218607842875,-0.0012324131152737,0.0012324120497486,-0.0012324130228732,0.0012324121411547,-0.0012324131946777,0.00123241212915,-0.001232413103281,0.0012324122215589,-0.0011345223796071,0.0011345218220079,-0.0011345225540965,0.0011345219964915,-0.0011345226462386,0.0011345219081356,-0.0011345224688332,0.0011345217307337,-0.00067585853163054,0.0006758577880331,0.67947291040118,123866,2964,0.0045040985026416,0.0074637139133583,0.0039024819774348,35.836486899993,0.00020189189519995,0.00020189189519995,0.00020189189519995,2948062.157387,0.015998291040478
35891759,0.99243824559044,0.016380483750606,0.0049162919154305,0.0068567554745622,0.0046074363606135,-0.0010887660182271,0.001088765726034,-1.3964320593709e-10,-1.3964656206986e-10,-2.100124914096e-10,8.519027936309e-11,-0.00036929472071525,0.00036929491860808,-0.00060561376715811,0.00060561440685294,-0.00060561408933155,0.00060561472908834,-0.0003692952615477,0.00036929487610875,-0.00036929501125106,0.00036929462586391,-0.00060561405787876,0.00060561411330928,-0.00060561438012878,0.00060561443562318,-0.0014178377847449,0.0014178372233187,-0.0014178379971079,0.0014178374356864,-0.0014178376875623,0.0014178373233038,-0.0014178379001664,0.0014178375359141,-0.0012796033240727,0.0012796031190307,-0.0012796033413982,0.0012796031363624,-0.001279603422538,0.0012796030205502,-0.0012796034389791,0.0012796030369974,-0.00036929497020224,0.00036929516805203,5.4975520653228e-11,-2.3420448513654e-10,6.02363106125e-11,-2.3671963992988e-10,-0.0018024807205791,0.0018024805447544,-0.0016699324822245,0.0016699321109007,-0.0018203465297083,0.0018203467329423,-0.0018203465110042,0.0018203461477473,-0.0017897790417955,0.0017897790643714,-0.0017897796205497,0.0017897794435326,-0.0017897792931273,0.001789779121937,-0.0017897798719113,0.0017897795011284,-0.0016699319424492,0.0016699319616713,-0.0016699325460602,0.0016699319825458,-0.0018203467014291,0.0018203467076999,-0.0018203466827074,0.0018203461224885,-0.0016699318786472,0.0016699320900638,-2.3880979129318e-10,-2.3881257220455e-10,-0.00094474480267629,0.00094474369814982,-4.2086265593475e-10,-1.2160189491029e-10,-0.00068892901466258,0.0006889287358291,-0.00075380931192482,0.00075380855384677,-0.00075380916725902,0.00075380840913488,-0.00068892948763195,0.00068892861939442,-0.00068892931074962,0.00068892844249732,-0.00075380960788206,0.0007538082570452,-0.00075380946349743,0.00075380811261206,-0.001236706463815,0.0012367055973783,-0.0012367063628194,0.0012367056976556,-0.0012367065150775,0.0012367056486377,-0.0012367064148167,0.0012367057496486,-0.0011405341201084,0.0011405337091047,-0.001140534276557,0.0011405338655481,-0.0011405343781939,0.0011405337668982,-0.0011405342196614,0.0011405336083692,-0.00068892919384056,0.00068892891502662,0.71348599053829,123866,2964,0.004530200082526,0.0074795851059999,0.0039312013087866,37.445351234784,0.00021476280987827,0.00021476280987827,0.00021476280987827,3027916.0752761,0.016070076459266
36391759,0.99440625102163,0.016413533274555,0.0049265510539043,0.0068703519715272,0.0046166302491232,-0.0010896342417979,0.0010896344771126,-3.4954319434241e-11,-3.4957671537719e-11,-9.7373957123332e-11,1.8715697754163e-10,-0.00036525059797768,0.00036525147793697,-0.00060397332249829,0.00060397488428055,-0.00060397364340597,0.00060397520525025,-0.0003652511387815,0.00036525144648526,-0.00036525088298968,0.00036525119074528,-0.00060397360393841,0.00060397460002064,-0.00060397392493423,0.00060397492108047,-0.0014203319545006,0.0014203316679174,-0.0014203321674634,0.0014203318808848,-0.0014203318611319,0.0014203317640697,-0.0014203320743331,0.001420331977277,-0.0012816643652667,0.0012816644082469,-0.0012816643835259,0.0012816644265122,-0.0012816644609386,0.0012816643125585,-0.0012816644783161,0.001281664329942,-0.00036525085297014,0.00036525173288608,5.6193916902647e-11,-2.340400639242e-10,6.2156435567971e-11,-2.3727113958103e-10,-0.0018082058500894,0.0018082056756294,-0.0016759794156541,0.001675979043629,-0.0018271076161681,0.0018271078226405,-0.0018271076154132,0.0018271072533269,-0.0017945025028732,0.0017945025279283,-0.0017945030821276,0.0017945029059878,-0.0017945027535527,0.0017945025841867,-0.0017945033328367,0.0017945029622762,-0.0016759788613724,0.0016759788840235,-0.0016759794790128,0.0016759789141083,-0.0018271077888413,0.0018271077967178,-0.0018271077880686,0.0018271072273878,-0.0016759787980475,0.0016759790135815,-1.0584098969292e-10,-1.0584376942785e-10,-0.00094398204197959,0.00094398181112535,-2.7932671280478e-10,8.9916073272741e-12,-0.00068466712834629,0.00068466753307069,-0.00075092085321791,0.0007509211975277,-0.00075092071005047,0.00075092105431427,-0.00068466760047907,0.00068466742594502,-0.00068466741933874,0.00068466724478991,-0.00075092114001121,0.00075092090990967,-0.0007509209971054,0.00075092076695559,-0.0012382672400554,0.0012382668097366,-0.0012382671430538,0.0012382669060255,-0.0012382672913517,0.0012382668610299,-0.0012382671950793,0.0012382669580469,-0.0011413265583253,0.0011413265049734,-0.001141326714255,0.001141326660898,-0.0011413268131092,0.0011413265650076,-0.0011413266551087,0.0011413264070106,-0.00068466731175333,0.00068466771649734,0.70433655235509,123866,2964,0.0045338615168243,0.0075032363634358,0.0039280746626818,37.533422775365,0.00021546738220292,0.00021546738220292,0.00021546738220292,2917552.8596236,0.016094688600093
36891759,0.99582035836517,0.016435014357011,0.0049332777556101,0.0068790939437593,0.0046226426576411,-0.0010893907037045,0.0010893913188719,3.1415942882157e-11,3.1412593308013e-11,1.3889800379074e-10,3.2893743879733e-10,-0.00036003619803927,0.00036003759443558,-0.00059985224008238,0.00059985481217242,-0.00059985217316628,0.00059985474531884,-0.00036003663844346,0.00036003763711241,-0.0003600363975558,0.00036003739627678,-0.00059985243038554,0.00059985461897808,-0.00059985236454045,0.00059985455319718,-0.0014219093043074,0.0014219090918051,-0.0014219092899211,0.0014219090774233,-0.0014219092430811,0.0014219091557836,-0.0014219092279731,0.0014219091406815,-0.0012822299125053,0.0012822298861736,-0.0012822299044395,0.0012822298781137,-0.0012822299759665,0.0012822298202579,-0.0012822299697452,0.0012822298140425,-0.00036003644120335,0.00036003783755598,2.5195795697501e-11,-1.6835139131512e-10,2.8588005946483e-11,-1.7018600050803e-10,-0.001810384733328,0.0018103845924389,-0.0016791374597831,0.0016791371849631,-0.0018314988125557,0.0018314989252988,-0.0018314982515378,0.0018314979830802,-0.0017946212832873,0.001794621267031,-0.0017946215730819,0.0017946214324255,-0.0017946214838648,0.0017946213455366,-0.001794621773689,0.0017946215109612,-0.0016791375197165,0.0016791375119742,-0.0016791376558955,0.0016791372540889,-0.0018314989582354,0.001831498941046,-0.0018314983971993,0.0018314979988106,-0.0016791373236379,0.0016791374428853,4.6833109574768e-12,4.6805306012383e-12,-0.00094240415807962,0.00094240468671052,1.5675318909179e-11,2.0757737638158e-10,-0.0006798780722525,0.00067987884670074,-0.00074623248493729,0.00074623386649176,-0.00074623265296702,0.00074623403447528,-0.00067987832243293,0.00067987869451513,-0.00067987827257394,0.00067987864464176,-0.00074623268018261,0.00074623367153145,-0.00074623284735775,0.00074623383865821,-0.0012387415241693,0.0012387413179044,-0.0012387414610371,0.0012387413812083,-0.0012387414880934,0.0012387412818255,-0.0012387414247871,0.001238741344954,-0.0011409838913546,0.0011409838223662,-0.0011409839972477,0.0011409839282541,-0.0011409840628282,0.0011409838627975,-0.0011409839575245,0.0011409837574974,-0.0006798781201835,0.00067987889465128,0.6357490455962,123866,2964,0.0045329083553264,0.0075122630726319,0.0039215672656437,36.818508645895,0.00020974806916716,0.00020974806916716,0.00020974806916716,2919731.3806137,0.016096297577068
37391759,0.99691381009446,0.016452447910056,0.0049387221120139,0.0068861981931191,0.0046275276049227,-0.0010926896864253,0.0010926896879276,-9.2790994416462e-11,-9.2794355637308e-11,-6.4054863366423e-11,1.2754121053445e-10,-0.00036861970951881,0.00036862023589813,-0.00060636630420792,0.00060636753944489,-0.000606366485936,0.00060636772123477,-0.00036862014920896,0.00036862029054967,-0.00036861990158925,0.00036862004298185,-0.00060636649437567,0.00060636734717344,-0.0006063666764668,0.00060636752932884,-0.0014239164841518,0.0014239160449523,-0.0014239166187035,0.0014239161795088,-0.0014239164209013,0.0014239161101248,-0.0014239165554411,0.0014239162446706,-0.0012844903317296,0.0012844901357695,-0.0012844903527947,0.0012844901568404,-0.0012844903958725,0.0012844900712208,-0.0012844904167634,0.0012844900921175,-0.00036861995717919,0.00036862048351538,2.2809999699578e-11,-1.6637883940427e-10,2.7215457652627e-11,-1.6926808571698e-10,-0.0018106236660285,0.0018106235246992,-0.0016769214474035,0.0016769211747312,-0.001828971661239,0.0018289717681387,-0.0018289713775798,0.0018289711138758,-0.0017978227456312,0.0017978227335301,-0.0017978232006493,0.0017978230583724,-0.0017978229569595,0.0017978228193797,-0.0017978234120073,0.0017978231442519,-0.001676921168419,0.0016769211576105,-0.0016769215411223,0.001676921143281,-0.0018289718061646,0.0018289717833715,-0.0018289715224873,0.0018289711290923,-0.0016769210747342,0.0016769211890974,-1.6709502463376e-10,-1.6709781301181e-10,-0.00094675312976057,0.0009467525704394,-2.462189038065e-10,-5.0359123350114e-11,-0.00068925212108107,0.00068925211644713,-0.00075437763665647,0.00075437754061226,-0.00075437760765421,0.00075437751156405,-0.00068925244797902,0.00068925205027377,-0.00068925231810507,0.0006892519203847,-0.00075437783265605,0.00075437734422546,-0.00075437780344287,0.00075437731496425,-0.0012405367595818,0.001240536126706,-0.0012405366936316,0.0012405361922722,-0.0012405367818469,0.001240536148968,-0.0012405367162883,0.001240536214925,-0.0011441441193549,0.0011441437743952,-0.0011441442476353,0.0011441439026702,-0.0011441443145224,0.0011441438376505,-0.0011441441850844,0.0011441437082161,-0.00068925225173539,0.00068925224712111,0.66747126441366,123866,2964,0.0045465265406012,0.0075132298305864,0.0039395730654132,37.627176033588,0.0002162174082687,0.0002162174082687,0.0002162174082687,2995782.6732674,0.016129378713365
37891759,0.99772428507597,0.0164642426166,0.0049424061882951,0.0068910137619799,0.0046308226663251,-0.0010926996530108,0.001092699905666,-4.3091016157859e-11,-4.309436226152e-11,-1.098812468798e-11,1.7480978709276e-10,-0.00036468999966933,0.00036469085222941,-0.00060452864715493,0.00060453031954893,-0.00060452882910249,0.00060453050155844,-0.00036469043841166,0.00036469091262134,-0.00036469018839878,0.00036469066266039,-0.00060452883220518,0.00060453013240722,-0.00060452901451301,0.00060453031477941,-0.001425101474522,0.0014251011655739,-0.0014251016090136,0.0014251013000704,-0.0014251014133169,0.001425101228687,-0.0014251015477961,0.0014251013631722,-0.001285329215685,0.0012853291385283,-0.0012853292349141,0.0012853291577634,-0.001285329278263,0.0012853290755423,-0.0012853292973224,0.0012853290946076,-0.00036469024971997,0.00036469110223656,2.3101872547769e-11,-1.658507277822e-10,2.7488389913998e-11,-1.6873310154567e-10,-0.0018142407699755,0.0018142406294528,-0.0016809582970647,0.001680958025376,-0.0018336388883412,0.0018336389957384,-0.0018336386146476,0.0018336383519095,-0.0018003948964943,0.001800394885,-0.0018003953516938,0.0018003952102229,-0.0018003951075935,0.001800394970806,-0.0018003955628226,0.0018003952960588,-0.0016809580099659,0.0016809579997845,-0.0016809583893628,0.0016809579926673,-0.001833639032722,0.0018336390106032,-0.0018336387590102,0.0018336383667578,-0.0016809579177017,0.00168095803253,-1.0380356829871e-10,-1.0380635781644e-10,-0.00094559779358587,0.00094559765233891,-1.789153399283e-10,1.0305441837591e-11,-0.00068507056881369,0.0006850708905721,-0.00075151881979242,0.00075151924855237,-0.0007515187902648,0.00075151921897865,-0.00068507089477999,0.00068507083108211,-0.00068507076201913,0.0006850706983062,-0.00075151901003128,0.00075151905793236,-0.00075151898028699,0.00075151902814003,-0.0012412224417643,0.0012412220161138,-0.0012412223781862,0.0012412220793105,-0.0012412224637481,0.0012412220380946,-0.001241222400559,0.0012412221016794,-0.0011440746057095,0.0011440744319966,-0.0011440747357348,0.0011440745620167,-0.0011440748008265,0.0011440744987814,-0.0011440746696502,0.0011440743676087,-0.0006850707023412,0.00068507102411922,0.60954457296435,123866,2964,0.0045466164887361,0.0075281769905932,0.0039348082872846,37.7092668105,0.000216874134484,0.000216874134484,0.000216874134484,2906263.9225063,0.016139847782709
38391759,0.99830960270961,0.016473756454607,0.004945367626234,0.0068949013298361,0.0046334874985368,-0.00109300986877,0.0010930103826604,4.7030983529854e-12,4.699738896791e-12,1.3896994145339e-10,2.5382908254135e-10,-0.00036700106656162,0.00036700224834386,-0.00060544042133461,0.0006054427173272,-0.00060544038549478,0.00060544268154937,-0.00036700143546511,0.00036700237165899,-0.00036700118992513,0.00036700212617076,-0.00060544053777171,0.00060544259892573,-0.00060544050283316,0.00060544256405152,-0.001424953093376,0.0014249528586833,-0.0014249530991352,0.0014249528644472,-0.0014249530560182,0.0014249528977236,-0.0014249530612464,0.0014249529029579,-0.0012851853248411,0.0012851852283993,-0.0012851853266955,0.0012851852302598,-0.0012851853634847,0.0012851851880899,-0.0012851853666395,0.0012851851912506,-0.00036700131383525,0.00036700249557386,4.9441471949911e-13,-1.174153684308e-10,-1.7473182860669e-12,-1.1452427693272e-10,-0.0018123545194326,0.0018123544039235,-0.0016786844058879,0.001678684215764,-0.0018312677633651,0.0018312677990131,-0.0018312671661103,0.0018312669698,-0.001799108046405,0.0017991080035455,-0.001799108327522,0.0017991082154094,-0.0017991082226708,0.0017991081060998,-0.0017991085038173,0.0017991083179936,-0.0016786844773525,0.0016786844353896,-0.0016786845665816,0.0016786842995752,-0.0018312678816951,0.0018312678442137,-0.001831267284422,0.0018312670149841,-0.0016786843166927,0.0016786843516153,-3.1437142017626e-11,-3.1439935590373e-11,-0.00094653304322683,0.00094653339769419,8.1151584698322e-12,1.152596276622e-10,-0.0006880452462451,0.00068804579584706,-0.00075336694551006,0.00075336800219481,-0.00075336709168262,0.00075336814832131,-0.00068804541763336,0.00068804573576043,-0.00068804536114267,0.00068804567925504,-0.00075336705698952,0.00075336789099146,-0.00075336720227898,0.00075336803623296,-0.0012410328178451,0.0012410325657787,-0.0012410327826028,0.0012410326011534,-0.0012410327897439,0.0012410325376745,-0.001241032754365,0.0012410325729117,-0.0011444275900853,0.0011444274289668,-0.0011444276941663,0.0011444275330427,-0.0011444277312384,0.0011444274961584,-0.0011444276275433,0.0011444273924668,-0.0006880453010504,0.00068804585067174,0.68081525693755,123866,2964,0.0045478782912105,0.0075203841173898,0.0039386741597384,37.199249788213,0.0002127939983057,0.0002127939983057,0.0002127939983057,2988261.3493038,0.01613711788696
38880000,0.99873673169897,0.016481079366613,0.0049476336718988,0.0068979187652756,0.0046355269294383,-0.0010924051643121,0.0010924054586572,-4.4577342310439e-11,-4.4584734966951e-11,7.7718701048502e-11,1.6850786834735e-10,-0.0003563737582185,0.00035637462014282,-0.00059859177422027,0.0005985935988869,-0.00059859182106701,0.00059859364579208,-0.00035637409946064,0.00035637476895877,-0.00035637385457624,0.00035637452412725,-0.00059859186661754,0.00059859350509368,-0.00059859191405839,0.00059859355259523,-0.0014270824141156,0.0014270820933199,-0.0014270824694811,0.0014270821486874,-0.0014270823839182,0.0014270821246009,-0.0014270824390349,0.0014270821797209,-0.0012865329369371,0.0012865327600321,-0.0012865329466486,0.0012865327697404,-0.0012865329676959,0.0012865327284906,-0.0012865329779133,0.0012865327387059,-0.00035637400386136,0.00035637486574762,-8.3058907901495e-12,-1.0018072484358e-10,-1.792237677781e-11,-9.0216876380288e-11,-0.001817908687548,0.0018179085801925,-0.0016878670444279,0.0016878668940065,-0.0018415360107843,0.0018415360155612,-0.0018415354755029,0.0018415353002643,-0.0017998836506131,0.0017998835963149,-0.0017998839789112,0.0017998838795268,-0.0017998838259949,0.0017998837128593,-0.0017998841543205,0.0017998839961017,-0.0016878670381441,0.0016878669726891,-0.0016878671626913,0.0016878669523444,-0.0018415361180566,0.0018415360761626,-0.0018415355827576,0.0018415353608493,-0.0016878669199153,0.0016878669143883,-9.77923274527e-11,-9.7791056138597e-11,-0.00094357611369364,0.0009435760932716,-6.6080632120284e-11,2.878715549863e-12,-0.00067656355207521,0.00067656379781,-0.0007437892159224,0.00074378974873507,-0.00074378929410679,0.0007437898268703,-0.00067656371327714,0.00067656380866978,-0.00067656362687648,0.00067656372225054,-0.00074378928893631,0.00074378967577235,-0.00074378936644865,0.00074378975323309,-0.0012426492509063,0.0012426488441972,-0.0012426492277985,0.0012426488672512,-0.0012426492426772,0.0012426488359685,-0.0012426492196217,0.0012426488590731,-0.0011439301274613,0.0011439298412626,-0.0011439302406625,0.0011439299544494,-0.0011439302649289,0.0011439299309458,-0.0011439301514956,0.0011439298175239,-0.00067656363779425,0.00067656388355067,0.71913113407407,123866,2964,0.0045454885451915,0.0075433792425516,0.0039264786663004,37.193707631412,0.0002127496610513,0.0002127496610513,0.0002127496610513,2857272.7217325,0.016145724969284
